p wcnf 485 14026 107
1 380 0
1 381 0
1 382 0
1 383 0
1 384 0
1 385 0
1 386 0
1 387 0
1 388 0
1 389 0
1 390 0
1 391 0
1 392 0
1 393 0
1 394 0
1 395 0
1 396 0
1 397 0
1 398 0
1 399 0
1 400 0
1 401 0
1 402 0
1 403 0
1 404 0
1 405 0
1 406 0
1 407 0
1 408 0
1 409 0
1 410 0
1 411 0
1 412 0
1 413 0
1 414 0
1 415 0
1 416 0
1 417 0
1 418 0
1 419 0
1 420 0
1 421 0
1 422 0
1 423 0
1 424 0
1 425 0
1 426 0
1 427 0
1 428 0
1 429 0
1 430 0
1 431 0
1 432 0
1 433 0
1 434 0
1 435 0
1 436 0
1 437 0
1 438 0
1 439 0
1 440 0
1 441 0
1 442 0
1 443 0
1 444 0
1 445 0
1 446 0
1 447 0
1 448 0
1 449 0
1 450 0
1 451 0
1 452 0
1 453 0
1 454 0
1 455 0
1 456 0
1 457 0
1 458 0
1 459 0
1 460 0
1 461 0
1 462 0
1 463 0
1 464 0
1 465 0
1 466 0
1 467 0
1 468 0
1 469 0
1 470 0
1 471 0
1 472 0
1 473 0
1 474 0
1 475 0
1 476 0
1 477 0
1 478 0
1 479 0
1 480 0
1 481 0
1 482 0
1 483 0
1 484 0
1 485 0
107 1 2 3 4 5 6 7 8 9 10 11 12 13 14 15 16 17 18 19 20 21 22 23 24 25 26 27 28 29 30 31 32 33 34 35 36 37 38 39 40 41 42 43 44 45 46 47 48 49 50 51 52 53 54 55 56 57 0
107 -1 -2 0
107 -1 -3 0
107 -1 -4 0
107 -1 -5 0
107 -1 -6 0
107 -1 -7 0
107 -1 -8 0
107 -1 -9 0
107 -1 -10 0
107 -1 -11 0
107 -1 -12 0
107 -1 -13 0
107 -1 -14 0
107 -1 -15 0
107 -1 -16 0
107 -1 -17 0
107 -1 -18 0
107 -1 -19 0
107 -1 -20 0
107 -1 -21 0
107 -1 -22 0
107 -1 -23 0
107 -1 -24 0
107 -1 -25 0
107 -1 -26 0
107 -1 -27 0
107 -1 -28 0
107 -1 -29 0
107 -1 -30 0
107 -1 -31 0
107 -1 -32 0
107 -1 -33 0
107 -1 -34 0
107 -1 -35 0
107 -1 -36 0
107 -1 -37 0
107 -1 -38 0
107 -1 -39 0
107 -1 -40 0
107 -1 -41 0
107 -1 -42 0
107 -1 -43 0
107 -1 -44 0
107 -1 -45 0
107 -1 -46 0
107 -1 -47 0
107 -1 -48 0
107 -1 -49 0
107 -1 -50 0
107 -1 -51 0
107 -1 -52 0
107 -1 -53 0
107 -1 -54 0
107 -1 -55 0
107 -1 -56 0
107 -1 -57 0
107 -2 -3 0
107 -2 -4 0
107 -2 -5 0
107 -2 -6 0
107 -2 -7 0
107 -2 -8 0
107 -2 -9 0
107 -2 -10 0
107 -2 -11 0
107 -2 -12 0
107 -2 -13 0
107 -2 -14 0
107 -2 -15 0
107 -2 -16 0
107 -2 -17 0
107 -2 -18 0
107 -2 -19 0
107 -2 -20 0
107 -2 -21 0
107 -2 -22 0
107 -2 -23 0
107 -2 -24 0
107 -2 -25 0
107 -2 -26 0
107 -2 -27 0
107 -2 -28 0
107 -2 -29 0
107 -2 -30 0
107 -2 -31 0
107 -2 -32 0
107 -2 -33 0
107 -2 -34 0
107 -2 -35 0
107 -2 -36 0
107 -2 -37 0
107 -2 -38 0
107 -2 -39 0
107 -2 -40 0
107 -2 -41 0
107 -2 -42 0
107 -2 -43 0
107 -2 -44 0
107 -2 -45 0
107 -2 -46 0
107 -2 -47 0
107 -2 -48 0
107 -2 -49 0
107 -2 -50 0
107 -2 -51 0
107 -2 -52 0
107 -2 -53 0
107 -2 -54 0
107 -2 -55 0
107 -2 -56 0
107 -2 -57 0
107 -3 -4 0
107 -3 -5 0
107 -3 -6 0
107 -3 -7 0
107 -3 -8 0
107 -3 -9 0
107 -3 -10 0
107 -3 -11 0
107 -3 -12 0
107 -3 -13 0
107 -3 -14 0
107 -3 -15 0
107 -3 -16 0
107 -3 -17 0
107 -3 -18 0
107 -3 -19 0
107 -3 -20 0
107 -3 -21 0
107 -3 -22 0
107 -3 -23 0
107 -3 -24 0
107 -3 -25 0
107 -3 -26 0
107 -3 -27 0
107 -3 -28 0
107 -3 -29 0
107 -3 -30 0
107 -3 -31 0
107 -3 -32 0
107 -3 -33 0
107 -3 -34 0
107 -3 -35 0
107 -3 -36 0
107 -3 -37 0
107 -3 -38 0
107 -3 -39 0
107 -3 -40 0
107 -3 -41 0
107 -3 -42 0
107 -3 -43 0
107 -3 -44 0
107 -3 -45 0
107 -3 -46 0
107 -3 -47 0
107 -3 -48 0
107 -3 -49 0
107 -3 -50 0
107 -3 -51 0
107 -3 -52 0
107 -3 -53 0
107 -3 -54 0
107 -3 -55 0
107 -3 -56 0
107 -3 -57 0
107 -4 -5 0
107 -4 -6 0
107 -4 -7 0
107 -4 -8 0
107 -4 -9 0
107 -4 -10 0
107 -4 -11 0
107 -4 -12 0
107 -4 -13 0
107 -4 -14 0
107 -4 -15 0
107 -4 -16 0
107 -4 -17 0
107 -4 -18 0
107 -4 -19 0
107 -4 -20 0
107 -4 -21 0
107 -4 -22 0
107 -4 -23 0
107 -4 -24 0
107 -4 -25 0
107 -4 -26 0
107 -4 -27 0
107 -4 -28 0
107 -4 -29 0
107 -4 -30 0
107 -4 -31 0
107 -4 -32 0
107 -4 -33 0
107 -4 -34 0
107 -4 -35 0
107 -4 -36 0
107 -4 -37 0
107 -4 -38 0
107 -4 -39 0
107 -4 -40 0
107 -4 -41 0
107 -4 -42 0
107 -4 -43 0
107 -4 -44 0
107 -4 -45 0
107 -4 -46 0
107 -4 -47 0
107 -4 -48 0
107 -4 -49 0
107 -4 -50 0
107 -4 -51 0
107 -4 -52 0
107 -4 -53 0
107 -4 -54 0
107 -4 -55 0
107 -4 -56 0
107 -4 -57 0
107 -5 -6 0
107 -5 -7 0
107 -5 -8 0
107 -5 -9 0
107 -5 -10 0
107 -5 -11 0
107 -5 -12 0
107 -5 -13 0
107 -5 -14 0
107 -5 -15 0
107 -5 -16 0
107 -5 -17 0
107 -5 -18 0
107 -5 -19 0
107 -5 -20 0
107 -5 -21 0
107 -5 -22 0
107 -5 -23 0
107 -5 -24 0
107 -5 -25 0
107 -5 -26 0
107 -5 -27 0
107 -5 -28 0
107 -5 -29 0
107 -5 -30 0
107 -5 -31 0
107 -5 -32 0
107 -5 -33 0
107 -5 -34 0
107 -5 -35 0
107 -5 -36 0
107 -5 -37 0
107 -5 -38 0
107 -5 -39 0
107 -5 -40 0
107 -5 -41 0
107 -5 -42 0
107 -5 -43 0
107 -5 -44 0
107 -5 -45 0
107 -5 -46 0
107 -5 -47 0
107 -5 -48 0
107 -5 -49 0
107 -5 -50 0
107 -5 -51 0
107 -5 -52 0
107 -5 -53 0
107 -5 -54 0
107 -5 -55 0
107 -5 -56 0
107 -5 -57 0
107 -6 -7 0
107 -6 -8 0
107 -6 -9 0
107 -6 -10 0
107 -6 -11 0
107 -6 -12 0
107 -6 -13 0
107 -6 -14 0
107 -6 -15 0
107 -6 -16 0
107 -6 -17 0
107 -6 -18 0
107 -6 -19 0
107 -6 -20 0
107 -6 -21 0
107 -6 -22 0
107 -6 -23 0
107 -6 -24 0
107 -6 -25 0
107 -6 -26 0
107 -6 -27 0
107 -6 -28 0
107 -6 -29 0
107 -6 -30 0
107 -6 -31 0
107 -6 -32 0
107 -6 -33 0
107 -6 -34 0
107 -6 -35 0
107 -6 -36 0
107 -6 -37 0
107 -6 -38 0
107 -6 -39 0
107 -6 -40 0
107 -6 -41 0
107 -6 -42 0
107 -6 -43 0
107 -6 -44 0
107 -6 -45 0
107 -6 -46 0
107 -6 -47 0
107 -6 -48 0
107 -6 -49 0
107 -6 -50 0
107 -6 -51 0
107 -6 -52 0
107 -6 -53 0
107 -6 -54 0
107 -6 -55 0
107 -6 -56 0
107 -6 -57 0
107 -7 -8 0
107 -7 -9 0
107 -7 -10 0
107 -7 -11 0
107 -7 -12 0
107 -7 -13 0
107 -7 -14 0
107 -7 -15 0
107 -7 -16 0
107 -7 -17 0
107 -7 -18 0
107 -7 -19 0
107 -7 -20 0
107 -7 -21 0
107 -7 -22 0
107 -7 -23 0
107 -7 -24 0
107 -7 -25 0
107 -7 -26 0
107 -7 -27 0
107 -7 -28 0
107 -7 -29 0
107 -7 -30 0
107 -7 -31 0
107 -7 -32 0
107 -7 -33 0
107 -7 -34 0
107 -7 -35 0
107 -7 -36 0
107 -7 -37 0
107 -7 -38 0
107 -7 -39 0
107 -7 -40 0
107 -7 -41 0
107 -7 -42 0
107 -7 -43 0
107 -7 -44 0
107 -7 -45 0
107 -7 -46 0
107 -7 -47 0
107 -7 -48 0
107 -7 -49 0
107 -7 -50 0
107 -7 -51 0
107 -7 -52 0
107 -7 -53 0
107 -7 -54 0
107 -7 -55 0
107 -7 -56 0
107 -7 -57 0
107 -8 -9 0
107 -8 -10 0
107 -8 -11 0
107 -8 -12 0
107 -8 -13 0
107 -8 -14 0
107 -8 -15 0
107 -8 -16 0
107 -8 -17 0
107 -8 -18 0
107 -8 -19 0
107 -8 -20 0
107 -8 -21 0
107 -8 -22 0
107 -8 -23 0
107 -8 -24 0
107 -8 -25 0
107 -8 -26 0
107 -8 -27 0
107 -8 -28 0
107 -8 -29 0
107 -8 -30 0
107 -8 -31 0
107 -8 -32 0
107 -8 -33 0
107 -8 -34 0
107 -8 -35 0
107 -8 -36 0
107 -8 -37 0
107 -8 -38 0
107 -8 -39 0
107 -8 -40 0
107 -8 -41 0
107 -8 -42 0
107 -8 -43 0
107 -8 -44 0
107 -8 -45 0
107 -8 -46 0
107 -8 -47 0
107 -8 -48 0
107 -8 -49 0
107 -8 -50 0
107 -8 -51 0
107 -8 -52 0
107 -8 -53 0
107 -8 -54 0
107 -8 -55 0
107 -8 -56 0
107 -8 -57 0
107 -9 -10 0
107 -9 -11 0
107 -9 -12 0
107 -9 -13 0
107 -9 -14 0
107 -9 -15 0
107 -9 -16 0
107 -9 -17 0
107 -9 -18 0
107 -9 -19 0
107 -9 -20 0
107 -9 -21 0
107 -9 -22 0
107 -9 -23 0
107 -9 -24 0
107 -9 -25 0
107 -9 -26 0
107 -9 -27 0
107 -9 -28 0
107 -9 -29 0
107 -9 -30 0
107 -9 -31 0
107 -9 -32 0
107 -9 -33 0
107 -9 -34 0
107 -9 -35 0
107 -9 -36 0
107 -9 -37 0
107 -9 -38 0
107 -9 -39 0
107 -9 -40 0
107 -9 -41 0
107 -9 -42 0
107 -9 -43 0
107 -9 -44 0
107 -9 -45 0
107 -9 -46 0
107 -9 -47 0
107 -9 -48 0
107 -9 -49 0
107 -9 -50 0
107 -9 -51 0
107 -9 -52 0
107 -9 -53 0
107 -9 -54 0
107 -9 -55 0
107 -9 -56 0
107 -9 -57 0
107 -10 -11 0
107 -10 -12 0
107 -10 -13 0
107 -10 -14 0
107 -10 -15 0
107 -10 -16 0
107 -10 -17 0
107 -10 -18 0
107 -10 -19 0
107 -10 -20 0
107 -10 -21 0
107 -10 -22 0
107 -10 -23 0
107 -10 -24 0
107 -10 -25 0
107 -10 -26 0
107 -10 -27 0
107 -10 -28 0
107 -10 -29 0
107 -10 -30 0
107 -10 -31 0
107 -10 -32 0
107 -10 -33 0
107 -10 -34 0
107 -10 -35 0
107 -10 -36 0
107 -10 -37 0
107 -10 -38 0
107 -10 -39 0
107 -10 -40 0
107 -10 -41 0
107 -10 -42 0
107 -10 -43 0
107 -10 -44 0
107 -10 -45 0
107 -10 -46 0
107 -10 -47 0
107 -10 -48 0
107 -10 -49 0
107 -10 -50 0
107 -10 -51 0
107 -10 -52 0
107 -10 -53 0
107 -10 -54 0
107 -10 -55 0
107 -10 -56 0
107 -10 -57 0
107 -11 -12 0
107 -11 -13 0
107 -11 -14 0
107 -11 -15 0
107 -11 -16 0
107 -11 -17 0
107 -11 -18 0
107 -11 -19 0
107 -11 -20 0
107 -11 -21 0
107 -11 -22 0
107 -11 -23 0
107 -11 -24 0
107 -11 -25 0
107 -11 -26 0
107 -11 -27 0
107 -11 -28 0
107 -11 -29 0
107 -11 -30 0
107 -11 -31 0
107 -11 -32 0
107 -11 -33 0
107 -11 -34 0
107 -11 -35 0
107 -11 -36 0
107 -11 -37 0
107 -11 -38 0
107 -11 -39 0
107 -11 -40 0
107 -11 -41 0
107 -11 -42 0
107 -11 -43 0
107 -11 -44 0
107 -11 -45 0
107 -11 -46 0
107 -11 -47 0
107 -11 -48 0
107 -11 -49 0
107 -11 -50 0
107 -11 -51 0
107 -11 -52 0
107 -11 -53 0
107 -11 -54 0
107 -11 -55 0
107 -11 -56 0
107 -11 -57 0
107 -12 -13 0
107 -12 -14 0
107 -12 -15 0
107 -12 -16 0
107 -12 -17 0
107 -12 -18 0
107 -12 -19 0
107 -12 -20 0
107 -12 -21 0
107 -12 -22 0
107 -12 -23 0
107 -12 -24 0
107 -12 -25 0
107 -12 -26 0
107 -12 -27 0
107 -12 -28 0
107 -12 -29 0
107 -12 -30 0
107 -12 -31 0
107 -12 -32 0
107 -12 -33 0
107 -12 -34 0
107 -12 -35 0
107 -12 -36 0
107 -12 -37 0
107 -12 -38 0
107 -12 -39 0
107 -12 -40 0
107 -12 -41 0
107 -12 -42 0
107 -12 -43 0
107 -12 -44 0
107 -12 -45 0
107 -12 -46 0
107 -12 -47 0
107 -12 -48 0
107 -12 -49 0
107 -12 -50 0
107 -12 -51 0
107 -12 -52 0
107 -12 -53 0
107 -12 -54 0
107 -12 -55 0
107 -12 -56 0
107 -12 -57 0
107 -13 -14 0
107 -13 -15 0
107 -13 -16 0
107 -13 -17 0
107 -13 -18 0
107 -13 -19 0
107 -13 -20 0
107 -13 -21 0
107 -13 -22 0
107 -13 -23 0
107 -13 -24 0
107 -13 -25 0
107 -13 -26 0
107 -13 -27 0
107 -13 -28 0
107 -13 -29 0
107 -13 -30 0
107 -13 -31 0
107 -13 -32 0
107 -13 -33 0
107 -13 -34 0
107 -13 -35 0
107 -13 -36 0
107 -13 -37 0
107 -13 -38 0
107 -13 -39 0
107 -13 -40 0
107 -13 -41 0
107 -13 -42 0
107 -13 -43 0
107 -13 -44 0
107 -13 -45 0
107 -13 -46 0
107 -13 -47 0
107 -13 -48 0
107 -13 -49 0
107 -13 -50 0
107 -13 -51 0
107 -13 -52 0
107 -13 -53 0
107 -13 -54 0
107 -13 -55 0
107 -13 -56 0
107 -13 -57 0
107 -14 -15 0
107 -14 -16 0
107 -14 -17 0
107 -14 -18 0
107 -14 -19 0
107 -14 -20 0
107 -14 -21 0
107 -14 -22 0
107 -14 -23 0
107 -14 -24 0
107 -14 -25 0
107 -14 -26 0
107 -14 -27 0
107 -14 -28 0
107 -14 -29 0
107 -14 -30 0
107 -14 -31 0
107 -14 -32 0
107 -14 -33 0
107 -14 -34 0
107 -14 -35 0
107 -14 -36 0
107 -14 -37 0
107 -14 -38 0
107 -14 -39 0
107 -14 -40 0
107 -14 -41 0
107 -14 -42 0
107 -14 -43 0
107 -14 -44 0
107 -14 -45 0
107 -14 -46 0
107 -14 -47 0
107 -14 -48 0
107 -14 -49 0
107 -14 -50 0
107 -14 -51 0
107 -14 -52 0
107 -14 -53 0
107 -14 -54 0
107 -14 -55 0
107 -14 -56 0
107 -14 -57 0
107 -15 -16 0
107 -15 -17 0
107 -15 -18 0
107 -15 -19 0
107 -15 -20 0
107 -15 -21 0
107 -15 -22 0
107 -15 -23 0
107 -15 -24 0
107 -15 -25 0
107 -15 -26 0
107 -15 -27 0
107 -15 -28 0
107 -15 -29 0
107 -15 -30 0
107 -15 -31 0
107 -15 -32 0
107 -15 -33 0
107 -15 -34 0
107 -15 -35 0
107 -15 -36 0
107 -15 -37 0
107 -15 -38 0
107 -15 -39 0
107 -15 -40 0
107 -15 -41 0
107 -15 -42 0
107 -15 -43 0
107 -15 -44 0
107 -15 -45 0
107 -15 -46 0
107 -15 -47 0
107 -15 -48 0
107 -15 -49 0
107 -15 -50 0
107 -15 -51 0
107 -15 -52 0
107 -15 -53 0
107 -15 -54 0
107 -15 -55 0
107 -15 -56 0
107 -15 -57 0
107 -16 -17 0
107 -16 -18 0
107 -16 -19 0
107 -16 -20 0
107 -16 -21 0
107 -16 -22 0
107 -16 -23 0
107 -16 -24 0
107 -16 -25 0
107 -16 -26 0
107 -16 -27 0
107 -16 -28 0
107 -16 -29 0
107 -16 -30 0
107 -16 -31 0
107 -16 -32 0
107 -16 -33 0
107 -16 -34 0
107 -16 -35 0
107 -16 -36 0
107 -16 -37 0
107 -16 -38 0
107 -16 -39 0
107 -16 -40 0
107 -16 -41 0
107 -16 -42 0
107 -16 -43 0
107 -16 -44 0
107 -16 -45 0
107 -16 -46 0
107 -16 -47 0
107 -16 -48 0
107 -16 -49 0
107 -16 -50 0
107 -16 -51 0
107 -16 -52 0
107 -16 -53 0
107 -16 -54 0
107 -16 -55 0
107 -16 -56 0
107 -16 -57 0
107 -17 -18 0
107 -17 -19 0
107 -17 -20 0
107 -17 -21 0
107 -17 -22 0
107 -17 -23 0
107 -17 -24 0
107 -17 -25 0
107 -17 -26 0
107 -17 -27 0
107 -17 -28 0
107 -17 -29 0
107 -17 -30 0
107 -17 -31 0
107 -17 -32 0
107 -17 -33 0
107 -17 -34 0
107 -17 -35 0
107 -17 -36 0
107 -17 -37 0
107 -17 -38 0
107 -17 -39 0
107 -17 -40 0
107 -17 -41 0
107 -17 -42 0
107 -17 -43 0
107 -17 -44 0
107 -17 -45 0
107 -17 -46 0
107 -17 -47 0
107 -17 -48 0
107 -17 -49 0
107 -17 -50 0
107 -17 -51 0
107 -17 -52 0
107 -17 -53 0
107 -17 -54 0
107 -17 -55 0
107 -17 -56 0
107 -17 -57 0
107 -18 -19 0
107 -18 -20 0
107 -18 -21 0
107 -18 -22 0
107 -18 -23 0
107 -18 -24 0
107 -18 -25 0
107 -18 -26 0
107 -18 -27 0
107 -18 -28 0
107 -18 -29 0
107 -18 -30 0
107 -18 -31 0
107 -18 -32 0
107 -18 -33 0
107 -18 -34 0
107 -18 -35 0
107 -18 -36 0
107 -18 -37 0
107 -18 -38 0
107 -18 -39 0
107 -18 -40 0
107 -18 -41 0
107 -18 -42 0
107 -18 -43 0
107 -18 -44 0
107 -18 -45 0
107 -18 -46 0
107 -18 -47 0
107 -18 -48 0
107 -18 -49 0
107 -18 -50 0
107 -18 -51 0
107 -18 -52 0
107 -18 -53 0
107 -18 -54 0
107 -18 -55 0
107 -18 -56 0
107 -18 -57 0
107 -19 -20 0
107 -19 -21 0
107 -19 -22 0
107 -19 -23 0
107 -19 -24 0
107 -19 -25 0
107 -19 -26 0
107 -19 -27 0
107 -19 -28 0
107 -19 -29 0
107 -19 -30 0
107 -19 -31 0
107 -19 -32 0
107 -19 -33 0
107 -19 -34 0
107 -19 -35 0
107 -19 -36 0
107 -19 -37 0
107 -19 -38 0
107 -19 -39 0
107 -19 -40 0
107 -19 -41 0
107 -19 -42 0
107 -19 -43 0
107 -19 -44 0
107 -19 -45 0
107 -19 -46 0
107 -19 -47 0
107 -19 -48 0
107 -19 -49 0
107 -19 -50 0
107 -19 -51 0
107 -19 -52 0
107 -19 -53 0
107 -19 -54 0
107 -19 -55 0
107 -19 -56 0
107 -19 -57 0
107 -20 -21 0
107 -20 -22 0
107 -20 -23 0
107 -20 -24 0
107 -20 -25 0
107 -20 -26 0
107 -20 -27 0
107 -20 -28 0
107 -20 -29 0
107 -20 -30 0
107 -20 -31 0
107 -20 -32 0
107 -20 -33 0
107 -20 -34 0
107 -20 -35 0
107 -20 -36 0
107 -20 -37 0
107 -20 -38 0
107 -20 -39 0
107 -20 -40 0
107 -20 -41 0
107 -20 -42 0
107 -20 -43 0
107 -20 -44 0
107 -20 -45 0
107 -20 -46 0
107 -20 -47 0
107 -20 -48 0
107 -20 -49 0
107 -20 -50 0
107 -20 -51 0
107 -20 -52 0
107 -20 -53 0
107 -20 -54 0
107 -20 -55 0
107 -20 -56 0
107 -20 -57 0
107 -21 -22 0
107 -21 -23 0
107 -21 -24 0
107 -21 -25 0
107 -21 -26 0
107 -21 -27 0
107 -21 -28 0
107 -21 -29 0
107 -21 -30 0
107 -21 -31 0
107 -21 -32 0
107 -21 -33 0
107 -21 -34 0
107 -21 -35 0
107 -21 -36 0
107 -21 -37 0
107 -21 -38 0
107 -21 -39 0
107 -21 -40 0
107 -21 -41 0
107 -21 -42 0
107 -21 -43 0
107 -21 -44 0
107 -21 -45 0
107 -21 -46 0
107 -21 -47 0
107 -21 -48 0
107 -21 -49 0
107 -21 -50 0
107 -21 -51 0
107 -21 -52 0
107 -21 -53 0
107 -21 -54 0
107 -21 -55 0
107 -21 -56 0
107 -21 -57 0
107 -22 -23 0
107 -22 -24 0
107 -22 -25 0
107 -22 -26 0
107 -22 -27 0
107 -22 -28 0
107 -22 -29 0
107 -22 -30 0
107 -22 -31 0
107 -22 -32 0
107 -22 -33 0
107 -22 -34 0
107 -22 -35 0
107 -22 -36 0
107 -22 -37 0
107 -22 -38 0
107 -22 -39 0
107 -22 -40 0
107 -22 -41 0
107 -22 -42 0
107 -22 -43 0
107 -22 -44 0
107 -22 -45 0
107 -22 -46 0
107 -22 -47 0
107 -22 -48 0
107 -22 -49 0
107 -22 -50 0
107 -22 -51 0
107 -22 -52 0
107 -22 -53 0
107 -22 -54 0
107 -22 -55 0
107 -22 -56 0
107 -22 -57 0
107 -23 -24 0
107 -23 -25 0
107 -23 -26 0
107 -23 -27 0
107 -23 -28 0
107 -23 -29 0
107 -23 -30 0
107 -23 -31 0
107 -23 -32 0
107 -23 -33 0
107 -23 -34 0
107 -23 -35 0
107 -23 -36 0
107 -23 -37 0
107 -23 -38 0
107 -23 -39 0
107 -23 -40 0
107 -23 -41 0
107 -23 -42 0
107 -23 -43 0
107 -23 -44 0
107 -23 -45 0
107 -23 -46 0
107 -23 -47 0
107 -23 -48 0
107 -23 -49 0
107 -23 -50 0
107 -23 -51 0
107 -23 -52 0
107 -23 -53 0
107 -23 -54 0
107 -23 -55 0
107 -23 -56 0
107 -23 -57 0
107 -24 -25 0
107 -24 -26 0
107 -24 -27 0
107 -24 -28 0
107 -24 -29 0
107 -24 -30 0
107 -24 -31 0
107 -24 -32 0
107 -24 -33 0
107 -24 -34 0
107 -24 -35 0
107 -24 -36 0
107 -24 -37 0
107 -24 -38 0
107 -24 -39 0
107 -24 -40 0
107 -24 -41 0
107 -24 -42 0
107 -24 -43 0
107 -24 -44 0
107 -24 -45 0
107 -24 -46 0
107 -24 -47 0
107 -24 -48 0
107 -24 -49 0
107 -24 -50 0
107 -24 -51 0
107 -24 -52 0
107 -24 -53 0
107 -24 -54 0
107 -24 -55 0
107 -24 -56 0
107 -24 -57 0
107 -25 -26 0
107 -25 -27 0
107 -25 -28 0
107 -25 -29 0
107 -25 -30 0
107 -25 -31 0
107 -25 -32 0
107 -25 -33 0
107 -25 -34 0
107 -25 -35 0
107 -25 -36 0
107 -25 -37 0
107 -25 -38 0
107 -25 -39 0
107 -25 -40 0
107 -25 -41 0
107 -25 -42 0
107 -25 -43 0
107 -25 -44 0
107 -25 -45 0
107 -25 -46 0
107 -25 -47 0
107 -25 -48 0
107 -25 -49 0
107 -25 -50 0
107 -25 -51 0
107 -25 -52 0
107 -25 -53 0
107 -25 -54 0
107 -25 -55 0
107 -25 -56 0
107 -25 -57 0
107 -26 -27 0
107 -26 -28 0
107 -26 -29 0
107 -26 -30 0
107 -26 -31 0
107 -26 -32 0
107 -26 -33 0
107 -26 -34 0
107 -26 -35 0
107 -26 -36 0
107 -26 -37 0
107 -26 -38 0
107 -26 -39 0
107 -26 -40 0
107 -26 -41 0
107 -26 -42 0
107 -26 -43 0
107 -26 -44 0
107 -26 -45 0
107 -26 -46 0
107 -26 -47 0
107 -26 -48 0
107 -26 -49 0
107 -26 -50 0
107 -26 -51 0
107 -26 -52 0
107 -26 -53 0
107 -26 -54 0
107 -26 -55 0
107 -26 -56 0
107 -26 -57 0
107 -27 -28 0
107 -27 -29 0
107 -27 -30 0
107 -27 -31 0
107 -27 -32 0
107 -27 -33 0
107 -27 -34 0
107 -27 -35 0
107 -27 -36 0
107 -27 -37 0
107 -27 -38 0
107 -27 -39 0
107 -27 -40 0
107 -27 -41 0
107 -27 -42 0
107 -27 -43 0
107 -27 -44 0
107 -27 -45 0
107 -27 -46 0
107 -27 -47 0
107 -27 -48 0
107 -27 -49 0
107 -27 -50 0
107 -27 -51 0
107 -27 -52 0
107 -27 -53 0
107 -27 -54 0
107 -27 -55 0
107 -27 -56 0
107 -27 -57 0
107 -28 -29 0
107 -28 -30 0
107 -28 -31 0
107 -28 -32 0
107 -28 -33 0
107 -28 -34 0
107 -28 -35 0
107 -28 -36 0
107 -28 -37 0
107 -28 -38 0
107 -28 -39 0
107 -28 -40 0
107 -28 -41 0
107 -28 -42 0
107 -28 -43 0
107 -28 -44 0
107 -28 -45 0
107 -28 -46 0
107 -28 -47 0
107 -28 -48 0
107 -28 -49 0
107 -28 -50 0
107 -28 -51 0
107 -28 -52 0
107 -28 -53 0
107 -28 -54 0
107 -28 -55 0
107 -28 -56 0
107 -28 -57 0
107 -29 -30 0
107 -29 -31 0
107 -29 -32 0
107 -29 -33 0
107 -29 -34 0
107 -29 -35 0
107 -29 -36 0
107 -29 -37 0
107 -29 -38 0
107 -29 -39 0
107 -29 -40 0
107 -29 -41 0
107 -29 -42 0
107 -29 -43 0
107 -29 -44 0
107 -29 -45 0
107 -29 -46 0
107 -29 -47 0
107 -29 -48 0
107 -29 -49 0
107 -29 -50 0
107 -29 -51 0
107 -29 -52 0
107 -29 -53 0
107 -29 -54 0
107 -29 -55 0
107 -29 -56 0
107 -29 -57 0
107 -30 -31 0
107 -30 -32 0
107 -30 -33 0
107 -30 -34 0
107 -30 -35 0
107 -30 -36 0
107 -30 -37 0
107 -30 -38 0
107 -30 -39 0
107 -30 -40 0
107 -30 -41 0
107 -30 -42 0
107 -30 -43 0
107 -30 -44 0
107 -30 -45 0
107 -30 -46 0
107 -30 -47 0
107 -30 -48 0
107 -30 -49 0
107 -30 -50 0
107 -30 -51 0
107 -30 -52 0
107 -30 -53 0
107 -30 -54 0
107 -30 -55 0
107 -30 -56 0
107 -30 -57 0
107 -31 -32 0
107 -31 -33 0
107 -31 -34 0
107 -31 -35 0
107 -31 -36 0
107 -31 -37 0
107 -31 -38 0
107 -31 -39 0
107 -31 -40 0
107 -31 -41 0
107 -31 -42 0
107 -31 -43 0
107 -31 -44 0
107 -31 -45 0
107 -31 -46 0
107 -31 -47 0
107 -31 -48 0
107 -31 -49 0
107 -31 -50 0
107 -31 -51 0
107 -31 -52 0
107 -31 -53 0
107 -31 -54 0
107 -31 -55 0
107 -31 -56 0
107 -31 -57 0
107 -32 -33 0
107 -32 -34 0
107 -32 -35 0
107 -32 -36 0
107 -32 -37 0
107 -32 -38 0
107 -32 -39 0
107 -32 -40 0
107 -32 -41 0
107 -32 -42 0
107 -32 -43 0
107 -32 -44 0
107 -32 -45 0
107 -32 -46 0
107 -32 -47 0
107 -32 -48 0
107 -32 -49 0
107 -32 -50 0
107 -32 -51 0
107 -32 -52 0
107 -32 -53 0
107 -32 -54 0
107 -32 -55 0
107 -32 -56 0
107 -32 -57 0
107 -33 -34 0
107 -33 -35 0
107 -33 -36 0
107 -33 -37 0
107 -33 -38 0
107 -33 -39 0
107 -33 -40 0
107 -33 -41 0
107 -33 -42 0
107 -33 -43 0
107 -33 -44 0
107 -33 -45 0
107 -33 -46 0
107 -33 -47 0
107 -33 -48 0
107 -33 -49 0
107 -33 -50 0
107 -33 -51 0
107 -33 -52 0
107 -33 -53 0
107 -33 -54 0
107 -33 -55 0
107 -33 -56 0
107 -33 -57 0
107 -34 -35 0
107 -34 -36 0
107 -34 -37 0
107 -34 -38 0
107 -34 -39 0
107 -34 -40 0
107 -34 -41 0
107 -34 -42 0
107 -34 -43 0
107 -34 -44 0
107 -34 -45 0
107 -34 -46 0
107 -34 -47 0
107 -34 -48 0
107 -34 -49 0
107 -34 -50 0
107 -34 -51 0
107 -34 -52 0
107 -34 -53 0
107 -34 -54 0
107 -34 -55 0
107 -34 -56 0
107 -34 -57 0
107 -35 -36 0
107 -35 -37 0
107 -35 -38 0
107 -35 -39 0
107 -35 -40 0
107 -35 -41 0
107 -35 -42 0
107 -35 -43 0
107 -35 -44 0
107 -35 -45 0
107 -35 -46 0
107 -35 -47 0
107 -35 -48 0
107 -35 -49 0
107 -35 -50 0
107 -35 -51 0
107 -35 -52 0
107 -35 -53 0
107 -35 -54 0
107 -35 -55 0
107 -35 -56 0
107 -35 -57 0
107 -36 -37 0
107 -36 -38 0
107 -36 -39 0
107 -36 -40 0
107 -36 -41 0
107 -36 -42 0
107 -36 -43 0
107 -36 -44 0
107 -36 -45 0
107 -36 -46 0
107 -36 -47 0
107 -36 -48 0
107 -36 -49 0
107 -36 -50 0
107 -36 -51 0
107 -36 -52 0
107 -36 -53 0
107 -36 -54 0
107 -36 -55 0
107 -36 -56 0
107 -36 -57 0
107 -37 -38 0
107 -37 -39 0
107 -37 -40 0
107 -37 -41 0
107 -37 -42 0
107 -37 -43 0
107 -37 -44 0
107 -37 -45 0
107 -37 -46 0
107 -37 -47 0
107 -37 -48 0
107 -37 -49 0
107 -37 -50 0
107 -37 -51 0
107 -37 -52 0
107 -37 -53 0
107 -37 -54 0
107 -37 -55 0
107 -37 -56 0
107 -37 -57 0
107 -38 -39 0
107 -38 -40 0
107 -38 -41 0
107 -38 -42 0
107 -38 -43 0
107 -38 -44 0
107 -38 -45 0
107 -38 -46 0
107 -38 -47 0
107 -38 -48 0
107 -38 -49 0
107 -38 -50 0
107 -38 -51 0
107 -38 -52 0
107 -38 -53 0
107 -38 -54 0
107 -38 -55 0
107 -38 -56 0
107 -38 -57 0
107 -39 -40 0
107 -39 -41 0
107 -39 -42 0
107 -39 -43 0
107 -39 -44 0
107 -39 -45 0
107 -39 -46 0
107 -39 -47 0
107 -39 -48 0
107 -39 -49 0
107 -39 -50 0
107 -39 -51 0
107 -39 -52 0
107 -39 -53 0
107 -39 -54 0
107 -39 -55 0
107 -39 -56 0
107 -39 -57 0
107 -40 -41 0
107 -40 -42 0
107 -40 -43 0
107 -40 -44 0
107 -40 -45 0
107 -40 -46 0
107 -40 -47 0
107 -40 -48 0
107 -40 -49 0
107 -40 -50 0
107 -40 -51 0
107 -40 -52 0
107 -40 -53 0
107 -40 -54 0
107 -40 -55 0
107 -40 -56 0
107 -40 -57 0
107 -41 -42 0
107 -41 -43 0
107 -41 -44 0
107 -41 -45 0
107 -41 -46 0
107 -41 -47 0
107 -41 -48 0
107 -41 -49 0
107 -41 -50 0
107 -41 -51 0
107 -41 -52 0
107 -41 -53 0
107 -41 -54 0
107 -41 -55 0
107 -41 -56 0
107 -41 -57 0
107 -42 -43 0
107 -42 -44 0
107 -42 -45 0
107 -42 -46 0
107 -42 -47 0
107 -42 -48 0
107 -42 -49 0
107 -42 -50 0
107 -42 -51 0
107 -42 -52 0
107 -42 -53 0
107 -42 -54 0
107 -42 -55 0
107 -42 -56 0
107 -42 -57 0
107 -43 -44 0
107 -43 -45 0
107 -43 -46 0
107 -43 -47 0
107 -43 -48 0
107 -43 -49 0
107 -43 -50 0
107 -43 -51 0
107 -43 -52 0
107 -43 -53 0
107 -43 -54 0
107 -43 -55 0
107 -43 -56 0
107 -43 -57 0
107 -44 -45 0
107 -44 -46 0
107 -44 -47 0
107 -44 -48 0
107 -44 -49 0
107 -44 -50 0
107 -44 -51 0
107 -44 -52 0
107 -44 -53 0
107 -44 -54 0
107 -44 -55 0
107 -44 -56 0
107 -44 -57 0
107 -45 -46 0
107 -45 -47 0
107 -45 -48 0
107 -45 -49 0
107 -45 -50 0
107 -45 -51 0
107 -45 -52 0
107 -45 -53 0
107 -45 -54 0
107 -45 -55 0
107 -45 -56 0
107 -45 -57 0
107 -46 -47 0
107 -46 -48 0
107 -46 -49 0
107 -46 -50 0
107 -46 -51 0
107 -46 -52 0
107 -46 -53 0
107 -46 -54 0
107 -46 -55 0
107 -46 -56 0
107 -46 -57 0
107 -47 -48 0
107 -47 -49 0
107 -47 -50 0
107 -47 -51 0
107 -47 -52 0
107 -47 -53 0
107 -47 -54 0
107 -47 -55 0
107 -47 -56 0
107 -47 -57 0
107 -48 -49 0
107 -48 -50 0
107 -48 -51 0
107 -48 -52 0
107 -48 -53 0
107 -48 -54 0
107 -48 -55 0
107 -48 -56 0
107 -48 -57 0
107 -49 -50 0
107 -49 -51 0
107 -49 -52 0
107 -49 -53 0
107 -49 -54 0
107 -49 -55 0
107 -49 -56 0
107 -49 -57 0
107 -50 -51 0
107 -50 -52 0
107 -50 -53 0
107 -50 -54 0
107 -50 -55 0
107 -50 -56 0
107 -50 -57 0
107 -51 -52 0
107 -51 -53 0
107 -51 -54 0
107 -51 -55 0
107 -51 -56 0
107 -51 -57 0
107 -52 -53 0
107 -52 -54 0
107 -52 -55 0
107 -52 -56 0
107 -52 -57 0
107 -53 -54 0
107 -53 -55 0
107 -53 -56 0
107 -53 -57 0
107 -54 -55 0
107 -54 -56 0
107 -54 -57 0
107 -55 -56 0
107 -55 -57 0
107 -56 -57 0
107 -1 -61 63 0
107 -1 61 -63 0
107 -1 -63 73 0
107 -1 63 -73 0
107 -1 -73 74 0
107 -1 73 -74 0
107 -1 -74 75 0
107 -1 74 -75 0
107 -1 -75 79 0
107 -1 75 -79 0
107 -1 -79 81 0
107 -1 79 -81 0
107 -1 -81 82 0
107 -1 81 -82 0
107 -1 -82 86 0
107 -1 82 -86 0
107 -1 -86 89 0
107 -1 86 -89 0
107 -1 -89 90 0
107 -1 89 -90 0
107 -1 -90 92 0
107 -1 90 -92 0
107 -1 -92 99 0
107 -1 92 -99 0
107 -1 -99 104 0
107 -1 99 -104 0
107 -1 -104 111 0
107 -1 104 -111 0
107 -1 -111 122 0
107 -1 111 -122 0
107 -1 -122 123 0
107 -1 122 -123 0
107 -1 -123 126 0
107 -1 123 -126 0
107 -1 -126 127 0
107 -1 126 -127 0
107 -1 -127 135 0
107 -1 127 -135 0
107 -1 -135 140 0
107 -1 135 -140 0
107 -1 -140 147 0
107 -1 140 -147 0
107 -1 -147 149 0
107 -1 147 -149 0
107 -1 -149 150 0
107 -1 149 -150 0
107 -1 -150 153 0
107 -1 150 -153 0
107 -1 -153 157 0
107 -1 153 -157 0
107 -1 -64 66 0
107 -1 64 -66 0
107 -1 -66 69 0
107 -1 66 -69 0
107 -1 -69 71 0
107 -1 69 -71 0
107 -1 -71 84 0
107 -1 71 -84 0
107 -1 -84 88 0
107 -1 84 -88 0
107 -1 -88 93 0
107 -1 88 -93 0
107 -1 -93 95 0
107 -1 93 -95 0
107 -1 -95 102 0
107 -1 95 -102 0
107 -1 -102 103 0
107 -1 102 -103 0
107 -1 -103 105 0
107 -1 103 -105 0
107 -1 -105 108 0
107 -1 105 -108 0
107 -1 -108 112 0
107 -1 108 -112 0
107 -1 -112 113 0
107 -1 112 -113 0
107 -1 -113 115 0
107 -1 113 -115 0
107 -1 -115 119 0
107 -1 115 -119 0
107 -1 -119 120 0
107 -1 119 -120 0
107 -1 -120 121 0
107 -1 120 -121 0
107 -1 -121 132 0
107 -1 121 -132 0
107 -1 -132 134 0
107 -1 132 -134 0
107 -1 -134 138 0
107 -1 134 -138 0
107 -1 -138 145 0
107 -1 138 -145 0
107 -1 -145 154 0
107 -1 145 -154 0
107 -1 -154 155 0
107 -1 154 -155 0
107 -1 -155 159 0
107 -1 155 -159 0
107 -1 -159 161 0
107 -1 159 -161 0
107 -1 -161 162 0
107 -1 161 -162 0
107 -1 -60 68 0
107 -1 60 -68 0
107 -1 -68 70 0
107 -1 68 -70 0
107 -1 -70 77 0
107 -1 70 -77 0
107 -1 -77 78 0
107 -1 77 -78 0
107 -1 -78 98 0
107 -1 78 -98 0
107 -1 -98 101 0
107 -1 98 -101 0
107 -1 -101 106 0
107 -1 101 -106 0
107 -1 -106 116 0
107 -1 106 -116 0
107 -1 -116 118 0
107 -1 116 -118 0
107 -1 -118 128 0
107 -1 118 -128 0
107 -1 -128 139 0
107 -1 128 -139 0
107 -1 -139 148 0
107 -1 139 -148 0
107 -1 -148 158 0
107 -1 148 -158 0
107 -1 -158 160 0
107 -1 158 -160 0
107 -1 -58 59 0
107 -1 58 -59 0
107 -1 -59 62 0
107 -1 59 -62 0
107 -1 -62 65 0
107 -1 62 -65 0
107 -1 -65 67 0
107 -1 65 -67 0
107 -1 -67 72 0
107 -1 67 -72 0
107 -1 -72 76 0
107 -1 72 -76 0
107 -1 -76 80 0
107 -1 76 -80 0
107 -1 -80 83 0
107 -1 80 -83 0
107 -1 -83 85 0
107 -1 83 -85 0
107 -1 -85 87 0
107 -1 85 -87 0
107 -1 -87 91 0
107 -1 87 -91 0
107 -1 -91 94 0
107 -1 91 -94 0
107 -1 -94 96 0
107 -1 94 -96 0
107 -1 -96 97 0
107 -1 96 -97 0
107 -1 -97 100 0
107 -1 97 -100 0
107 -1 -100 107 0
107 -1 100 -107 0
107 -1 -107 109 0
107 -1 107 -109 0
107 -1 -109 110 0
107 -1 109 -110 0
107 -1 -110 114 0
107 -1 110 -114 0
107 -1 -114 117 0
107 -1 114 -117 0
107 -1 -117 124 0
107 -1 117 -124 0
107 -1 -124 125 0
107 -1 124 -125 0
107 -1 -125 129 0
107 -1 125 -129 0
107 -1 -129 130 0
107 -1 129 -130 0
107 -1 -130 131 0
107 -1 130 -131 0
107 -1 -131 133 0
107 -1 131 -133 0
107 -1 -133 136 0
107 -1 133 -136 0
107 -1 -136 137 0
107 -1 136 -137 0
107 -1 -137 141 0
107 -1 137 -141 0
107 -1 -141 142 0
107 -1 141 -142 0
107 -1 -142 143 0
107 -1 142 -143 0
107 -1 -143 144 0
107 -1 143 -144 0
107 -1 -144 146 0
107 -1 144 -146 0
107 -1 -146 151 0
107 -1 146 -151 0
107 -1 -151 152 0
107 -1 151 -152 0
107 -1 -152 156 0
107 -1 152 -156 0
107 -1 -156 163 0
107 -1 156 -163 0
107 -2 -58 61 0
107 -2 58 -61 0
107 -2 -61 64 0
107 -2 61 -64 0
107 -2 -64 70 0
107 -2 64 -70 0
107 -2 -70 73 0
107 -2 70 -73 0
107 -2 -73 75 0
107 -2 73 -75 0
107 -2 -75 78 0
107 -2 75 -78 0
107 -2 -78 79 0
107 -2 78 -79 0
107 -2 -79 82 0
107 -2 79 -82 0
107 -2 -82 84 0
107 -2 82 -84 0
107 -2 -84 91 0
107 -2 84 -91 0
107 -2 -91 98 0
107 -2 91 -98 0
107 -2 -98 99 0
107 -2 98 -99 0
107 -2 -99 102 0
107 -2 99 -102 0
107 -2 -102 103 0
107 -2 102 -103 0
107 -2 -103 105 0
107 -2 103 -105 0
107 -2 -105 107 0
107 -2 105 -107 0
107 -2 -107 113 0
107 -2 107 -113 0
107 -2 -113 118 0
107 -2 113 -118 0
107 -2 -118 123 0
107 -2 118 -123 0
107 -2 -123 125 0
107 -2 123 -125 0
107 -2 -125 126 0
107 -2 125 -126 0
107 -2 -126 127 0
107 -2 126 -127 0
107 -2 -127 128 0
107 -2 127 -128 0
107 -2 -128 130 0
107 -2 128 -130 0
107 -2 -130 132 0
107 -2 130 -132 0
107 -2 -132 134 0
107 -2 132 -134 0
107 -2 -134 143 0
107 -2 134 -143 0
107 -2 -143 144 0
107 -2 143 -144 0
107 -2 -144 145 0
107 -2 144 -145 0
107 -2 -145 149 0
107 -2 145 -149 0
107 -2 -149 156 0
107 -2 149 -156 0
107 -2 -156 158 0
107 -2 156 -158 0
107 -2 -158 163 0
107 -2 158 -163 0
107 -2 -62 68 0
107 -2 62 -68 0
107 -2 -68 69 0
107 -2 68 -69 0
107 -2 -69 76 0
107 -2 69 -76 0
107 -2 -76 77 0
107 -2 76 -77 0
107 -2 -77 80 0
107 -2 77 -80 0
107 -2 -80 81 0
107 -2 80 -81 0
107 -2 -81 85 0
107 -2 81 -85 0
107 -2 -85 86 0
107 -2 85 -86 0
107 -2 -86 93 0
107 -2 86 -93 0
107 -2 -93 94 0
107 -2 93 -94 0
107 -2 -94 95 0
107 -2 94 -95 0
107 -2 -95 101 0
107 -2 95 -101 0
107 -2 -101 108 0
107 -2 101 -108 0
107 -2 -108 110 0
107 -2 108 -110 0
107 -2 -110 116 0
107 -2 110 -116 0
107 -2 -116 136 0
107 -2 116 -136 0
107 -2 -136 139 0
107 -2 136 -139 0
107 -2 -139 142 0
107 -2 139 -142 0
107 -2 -142 147 0
107 -2 142 -147 0
107 -2 -147 154 0
107 -2 147 -154 0
107 -2 -154 159 0
107 -2 154 -159 0
107 -2 -59 63 0
107 -2 59 -63 0
107 -2 -63 66 0
107 -2 63 -66 0
107 -2 -66 87 0
107 -2 66 -87 0
107 -2 -87 97 0
107 -2 87 -97 0
107 -2 -97 106 0
107 -2 97 -106 0
107 -2 -106 109 0
107 -2 106 -109 0
107 -2 -109 112 0
107 -2 109 -112 0
107 -2 -112 115 0
107 -2 112 -115 0
107 -2 -115 117 0
107 -2 115 -117 0
107 -2 -117 119 0
107 -2 117 -119 0
107 -2 -119 120 0
107 -2 119 -120 0
107 -2 -120 131 0
107 -2 120 -131 0
107 -2 -131 135 0
107 -2 131 -135 0
107 -2 -135 137 0
107 -2 135 -137 0
107 -2 -137 141 0
107 -2 137 -141 0
107 -2 -141 148 0
107 -2 141 -148 0
107 -2 -148 150 0
107 -2 148 -150 0
107 -2 -150 151 0
107 -2 150 -151 0
107 -2 -151 152 0
107 -2 151 -152 0
107 -2 -152 153 0
107 -2 152 -153 0
107 -2 -153 155 0
107 -2 153 -155 0
107 -2 -155 157 0
107 -2 155 -157 0
107 -2 -157 161 0
107 -2 157 -161 0
107 -2 -60 65 0
107 -2 60 -65 0
107 -2 -65 67 0
107 -2 65 -67 0
107 -2 -67 71 0
107 -2 67 -71 0
107 -2 -71 72 0
107 -2 71 -72 0
107 -2 -72 74 0
107 -2 72 -74 0
107 -2 -74 83 0
107 -2 74 -83 0
107 -2 -83 88 0
107 -2 83 -88 0
107 -2 -88 89 0
107 -2 88 -89 0
107 -2 -89 90 0
107 -2 89 -90 0
107 -2 -90 92 0
107 -2 90 -92 0
107 -2 -92 96 0
107 -2 92 -96 0
107 -2 -96 100 0
107 -2 96 -100 0
107 -2 -100 104 0
107 -2 100 -104 0
107 -2 -104 111 0
107 -2 104 -111 0
107 -2 -111 114 0
107 -2 111 -114 0
107 -2 -114 121 0
107 -2 114 -121 0
107 -2 -121 122 0
107 -2 121 -122 0
107 -2 -122 124 0
107 -2 122 -124 0
107 -2 -124 129 0
107 -2 124 -129 0
107 -2 -129 133 0
107 -2 129 -133 0
107 -2 -133 138 0
107 -2 133 -138 0
107 -2 -138 140 0
107 -2 138 -140 0
107 -2 -140 146 0
107 -2 140 -146 0
107 -2 -146 160 0
107 -2 146 -160 0
107 -2 -160 162 0
107 -2 160 -162 0
107 -3 -60 66 0
107 -3 60 -66 0
107 -3 -66 68 0
107 -3 66 -68 0
107 -3 -68 75 0
107 -3 68 -75 0
107 -3 -75 77 0
107 -3 75 -77 0
107 -3 -77 79 0
107 -3 77 -79 0
107 -3 -79 82 0
107 -3 79 -82 0
107 -3 -82 86 0
107 -3 82 -86 0
107 -3 -86 91 0
107 -3 86 -91 0
107 -3 -91 100 0
107 -3 91 -100 0
107 -3 -100 104 0
107 -3 100 -104 0
107 -3 -104 105 0
107 -3 104 -105 0
107 -3 -105 108 0
107 -3 105 -108 0
107 -3 -108 110 0
107 -3 108 -110 0
107 -3 -110 111 0
107 -3 110 -111 0
107 -3 -111 112 0
107 -3 111 -112 0
107 -3 -112 113 0
107 -3 112 -113 0
107 -3 -113 120 0
107 -3 113 -120 0
107 -3 -120 121 0
107 -3 120 -121 0
107 -3 -121 122 0
107 -3 121 -122 0
107 -3 -122 124 0
107 -3 122 -124 0
107 -3 -124 128 0
107 -3 124 -128 0
107 -3 -128 129 0
107 -3 128 -129 0
107 -3 -129 137 0
107 -3 129 -137 0
107 -3 -137 138 0
107 -3 137 -138 0
107 -3 -138 146 0
107 -3 138 -146 0
107 -3 -146 150 0
107 -3 146 -150 0
107 -3 -150 157 0
107 -3 150 -157 0
107 -3 -157 160 0
107 -3 157 -160 0
107 -3 -160 163 0
107 -3 160 -163 0
107 -3 -58 59 0
107 -3 58 -59 0
107 -3 -59 78 0
107 -3 59 -78 0
107 -3 -78 81 0
107 -3 78 -81 0
107 -3 -81 85 0
107 -3 81 -85 0
107 -3 -85 96 0
107 -3 85 -96 0
107 -3 -96 99 0
107 -3 96 -99 0
107 -3 -99 101 0
107 -3 99 -101 0
107 -3 -101 103 0
107 -3 101 -103 0
107 -3 -103 106 0
107 -3 103 -106 0
107 -3 -106 116 0
107 -3 106 -116 0
107 -3 -116 123 0
107 -3 116 -123 0
107 -3 -123 126 0
107 -3 123 -126 0
107 -3 -126 131 0
107 -3 126 -131 0
107 -3 -131 133 0
107 -3 131 -133 0
107 -3 -133 140 0
107 -3 133 -140 0
107 -3 -140 149 0
107 -3 140 -149 0
107 -3 -149 152 0
107 -3 149 -152 0
107 -3 -152 155 0
107 -3 152 -155 0
107 -3 -155 161 0
107 -3 155 -161 0
107 -3 -161 162 0
107 -3 161 -162 0
107 -3 -62 63 0
107 -3 62 -63 0
107 -3 -63 64 0
107 -3 63 -64 0
107 -3 -64 71 0
107 -3 64 -71 0
107 -3 -71 73 0
107 -3 71 -73 0
107 -3 -73 74 0
107 -3 73 -74 0
107 -3 -74 83 0
107 -3 74 -83 0
107 -3 -83 88 0
107 -3 83 -88 0
107 -3 -88 90 0
107 -3 88 -90 0
107 -3 -90 92 0
107 -3 90 -92 0
107 -3 -92 94 0
107 -3 92 -94 0
107 -3 -94 95 0
107 -3 94 -95 0
107 -3 -95 102 0
107 -3 95 -102 0
107 -3 -102 107 0
107 -3 102 -107 0
107 -3 -107 109 0
107 -3 107 -109 0
107 -3 -109 114 0
107 -3 109 -114 0
107 -3 -114 117 0
107 -3 114 -117 0
107 -3 -117 118 0
107 -3 117 -118 0
107 -3 -118 127 0
107 -3 118 -127 0
107 -3 -127 135 0
107 -3 127 -135 0
107 -3 -135 139 0
107 -3 135 -139 0
107 -3 -139 141 0
107 -3 139 -141 0
107 -3 -141 144 0
107 -3 141 -144 0
107 -3 -144 145 0
107 -3 144 -145 0
107 -3 -145 147 0
107 -3 145 -147 0
107 -3 -147 153 0
107 -3 147 -153 0
107 -3 -153 154 0
107 -3 153 -154 0
107 -3 -154 158 0
107 -3 154 -158 0
107 -3 -61 65 0
107 -3 61 -65 0
107 -3 -65 67 0
107 -3 65 -67 0
107 -3 -67 69 0
107 -3 67 -69 0
107 -3 -69 70 0
107 -3 69 -70 0
107 -3 -70 72 0
107 -3 70 -72 0
107 -3 -72 76 0
107 -3 72 -76 0
107 -3 -76 80 0
107 -3 76 -80 0
107 -3 -80 84 0
107 -3 80 -84 0
107 -3 -84 87 0
107 -3 84 -87 0
107 -3 -87 89 0
107 -3 87 -89 0
107 -3 -89 93 0
107 -3 89 -93 0
107 -3 -93 97 0
107 -3 93 -97 0
107 -3 -97 98 0
107 -3 97 -98 0
107 -3 -98 115 0
107 -3 98 -115 0
107 -3 -115 119 0
107 -3 115 -119 0
107 -3 -119 125 0
107 -3 119 -125 0
107 -3 -125 130 0
107 -3 125 -130 0
107 -3 -130 132 0
107 -3 130 -132 0
107 -3 -132 134 0
107 -3 132 -134 0
107 -3 -134 136 0
107 -3 134 -136 0
107 -3 -136 142 0
107 -3 136 -142 0
107 -3 -142 143 0
107 -3 142 -143 0
107 -3 -143 148 0
107 -3 143 -148 0
107 -3 -148 151 0
107 -3 148 -151 0
107 -3 -151 156 0
107 -3 151 -156 0
107 -3 -156 159 0
107 -3 156 -159 0
107 -4 -62 68 0
107 -4 62 -68 0
107 -4 -68 72 0
107 -4 68 -72 0
107 -4 -72 77 0
107 -4 72 -77 0
107 -4 -77 78 0
107 -4 77 -78 0
107 -4 -78 79 0
107 -4 78 -79 0
107 -4 -79 85 0
107 -4 79 -85 0
107 -4 -85 89 0
107 -4 85 -89 0
107 -4 -89 91 0
107 -4 89 -91 0
107 -4 -91 97 0
107 -4 91 -97 0
107 -4 -97 102 0
107 -4 97 -102 0
107 -4 -102 112 0
107 -4 102 -112 0
107 -4 -112 114 0
107 -4 112 -114 0
107 -4 -114 116 0
107 -4 114 -116 0
107 -4 -116 117 0
107 -4 116 -117 0
107 -4 -117 119 0
107 -4 117 -119 0
107 -4 -119 135 0
107 -4 119 -135 0
107 -4 -135 137 0
107 -4 135 -137 0
107 -4 -137 144 0
107 -4 137 -144 0
107 -4 -144 152 0
107 -4 144 -152 0
107 -4 -152 154 0
107 -4 152 -154 0
107 -4 -154 158 0
107 -4 154 -158 0
107 -4 -60 65 0
107 -4 60 -65 0
107 -4 -65 66 0
107 -4 65 -66 0
107 -4 -66 70 0
107 -4 66 -70 0
107 -4 -70 71 0
107 -4 70 -71 0
107 -4 -71 73 0
107 -4 71 -73 0
107 -4 -73 74 0
107 -4 73 -74 0
107 -4 -74 75 0
107 -4 74 -75 0
107 -4 -75 76 0
107 -4 75 -76 0
107 -4 -76 84 0
107 -4 76 -84 0
107 -4 -84 90 0
107 -4 84 -90 0
107 -4 -90 92 0
107 -4 90 -92 0
107 -4 -92 98 0
107 -4 92 -98 0
107 -4 -98 106 0
107 -4 98 -106 0
107 -4 -106 115 0
107 -4 106 -115 0
107 -4 -115 120 0
107 -4 115 -120 0
107 -4 -120 121 0
107 -4 120 -121 0
107 -4 -121 124 0
107 -4 121 -124 0
107 -4 -124 136 0
107 -4 124 -136 0
107 -4 -136 140 0
107 -4 136 -140 0
107 -4 -140 141 0
107 -4 140 -141 0
107 -4 -141 142 0
107 -4 141 -142 0
107 -4 -142 145 0
107 -4 142 -145 0
107 -4 -145 146 0
107 -4 145 -146 0
107 -4 -146 147 0
107 -4 146 -147 0
107 -4 -147 149 0
107 -4 147 -149 0
107 -4 -149 150 0
107 -4 149 -150 0
107 -4 -150 153 0
107 -4 150 -153 0
107 -4 -153 159 0
107 -4 153 -159 0
107 -4 -159 163 0
107 -4 159 -163 0
107 -4 -63 64 0
107 -4 63 -64 0
107 -4 -64 69 0
107 -4 64 -69 0
107 -4 -69 80 0
107 -4 69 -80 0
107 -4 -80 81 0
107 -4 80 -81 0
107 -4 -81 86 0
107 -4 81 -86 0
107 -4 -86 87 0
107 -4 86 -87 0
107 -4 -87 96 0
107 -4 87 -96 0
107 -4 -96 99 0
107 -4 96 -99 0
107 -4 -99 100 0
107 -4 99 -100 0
107 -4 -100 105 0
107 -4 100 -105 0
107 -4 -105 107 0
107 -4 105 -107 0
107 -4 -107 109 0
107 -4 107 -109 0
107 -4 -109 110 0
107 -4 109 -110 0
107 -4 -110 118 0
107 -4 110 -118 0
107 -4 -118 122 0
107 -4 118 -122 0
107 -4 -122 126 0
107 -4 122 -126 0
107 -4 -126 128 0
107 -4 126 -128 0
107 -4 -128 129 0
107 -4 128 -129 0
107 -4 -129 132 0
107 -4 129 -132 0
107 -4 -132 133 0
107 -4 132 -133 0
107 -4 -133 134 0
107 -4 133 -134 0
107 -4 -134 139 0
107 -4 134 -139 0
107 -4 -139 148 0
107 -4 139 -148 0
107 -4 -148 156 0
107 -4 148 -156 0
107 -4 -156 157 0
107 -4 156 -157 0
107 -4 -157 161 0
107 -4 157 -161 0
107 -4 -161 162 0
107 -4 161 -162 0
107 -4 -58 59 0
107 -4 58 -59 0
107 -4 -59 61 0
107 -4 59 -61 0
107 -4 -61 67 0
107 -4 61 -67 0
107 -4 -67 82 0
107 -4 67 -82 0
107 -4 -82 83 0
107 -4 82 -83 0
107 -4 -83 88 0
107 -4 83 -88 0
107 -4 -88 93 0
107 -4 88 -93 0
107 -4 -93 94 0
107 -4 93 -94 0
107 -4 -94 95 0
107 -4 94 -95 0
107 -4 -95 101 0
107 -4 95 -101 0
107 -4 -101 103 0
107 -4 101 -103 0
107 -4 -103 104 0
107 -4 103 -104 0
107 -4 -104 108 0
107 -4 104 -108 0
107 -4 -108 111 0
107 -4 108 -111 0
107 -4 -111 113 0
107 -4 111 -113 0
107 -4 -113 123 0
107 -4 113 -123 0
107 -4 -123 125 0
107 -4 123 -125 0
107 -4 -125 127 0
107 -4 125 -127 0
107 -4 -127 130 0
107 -4 127 -130 0
107 -4 -130 131 0
107 -4 130 -131 0
107 -4 -131 138 0
107 -4 131 -138 0
107 -4 -138 143 0
107 -4 138 -143 0
107 -4 -143 151 0
107 -4 143 -151 0
107 -4 -151 155 0
107 -4 151 -155 0
107 -4 -155 160 0
107 -4 155 -160 0
107 -5 -58 59 0
107 -5 58 -59 0
107 -5 -59 67 0
107 -5 59 -67 0
107 -5 -67 68 0
107 -5 67 -68 0
107 -5 -68 69 0
107 -5 68 -69 0
107 -5 -69 70 0
107 -5 69 -70 0
107 -5 -70 71 0
107 -5 70 -71 0
107 -5 -71 73 0
107 -5 71 -73 0
107 -5 -73 74 0
107 -5 73 -74 0
107 -5 -74 75 0
107 -5 74 -75 0
107 -5 -75 76 0
107 -5 75 -76 0
107 -5 -76 77 0
107 -5 76 -77 0
107 -5 -77 79 0
107 -5 77 -79 0
107 -5 -79 80 0
107 -5 79 -80 0
107 -5 -80 91 0
107 -5 80 -91 0
107 -5 -91 92 0
107 -5 91 -92 0
107 -5 -92 97 0
107 -5 92 -97 0
107 -5 -97 102 0
107 -5 97 -102 0
107 -5 -102 103 0
107 -5 102 -103 0
107 -5 -103 104 0
107 -5 103 -104 0
107 -5 -104 106 0
107 -5 104 -106 0
107 -5 -106 110 0
107 -5 106 -110 0
107 -5 -110 116 0
107 -5 110 -116 0
107 -5 -116 126 0
107 -5 116 -126 0
107 -5 -126 128 0
107 -5 126 -128 0
107 -5 -128 129 0
107 -5 128 -129 0
107 -5 -129 132 0
107 -5 129 -132 0
107 -5 -132 136 0
107 -5 132 -136 0
107 -5 -136 138 0
107 -5 136 -138 0
107 -5 -138 149 0
107 -5 138 -149 0
107 -5 -149 153 0
107 -5 149 -153 0
107 -5 -153 155 0
107 -5 153 -155 0
107 -5 -155 156 0
107 -5 155 -156 0
107 -5 -156 159 0
107 -5 156 -159 0
107 -5 -159 161 0
107 -5 159 -161 0
107 -5 -161 163 0
107 -5 161 -163 0
107 -5 -78 83 0
107 -5 78 -83 0
107 -5 -83 84 0
107 -5 83 -84 0
107 -5 -84 87 0
107 -5 84 -87 0
107 -5 -87 89 0
107 -5 87 -89 0
107 -5 -89 96 0
107 -5 89 -96 0
107 -5 -96 99 0
107 -5 96 -99 0
107 -5 -99 100 0
107 -5 99 -100 0
107 -5 -100 107 0
107 -5 100 -107 0
107 -5 -107 108 0
107 -5 107 -108 0
107 -5 -108 112 0
107 -5 108 -112 0
107 -5 -112 114 0
107 -5 112 -114 0
107 -5 -114 120 0
107 -5 114 -120 0
107 -5 -120 123 0
107 -5 120 -123 0
107 -5 -123 125 0
107 -5 123 -125 0
107 -5 -125 130 0
107 -5 125 -130 0
107 -5 -130 139 0
107 -5 130 -139 0
107 -5 -139 140 0
107 -5 139 -140 0
107 -5 -140 152 0
107 -5 140 -152 0
107 -5 -61 63 0
107 -5 61 -63 0
107 -5 -63 64 0
107 -5 63 -64 0
107 -5 -64 81 0
107 -5 64 -81 0
107 -5 -81 85 0
107 -5 81 -85 0
107 -5 -85 90 0
107 -5 85 -90 0
107 -5 -90 93 0
107 -5 90 -93 0
107 -5 -93 98 0
107 -5 93 -98 0
107 -5 -98 105 0
107 -5 98 -105 0
107 -5 -105 109 0
107 -5 105 -109 0
107 -5 -109 111 0
107 -5 109 -111 0
107 -5 -111 113 0
107 -5 111 -113 0
107 -5 -113 119 0
107 -5 113 -119 0
107 -5 -119 121 0
107 -5 119 -121 0
107 -5 -121 127 0
107 -5 121 -127 0
107 -5 -127 131 0
107 -5 127 -131 0
107 -5 -131 135 0
107 -5 131 -135 0
107 -5 -135 137 0
107 -5 135 -137 0
107 -5 -137 141 0
107 -5 137 -141 0
107 -5 -141 142 0
107 -5 141 -142 0
107 -5 -142 143 0
107 -5 142 -143 0
107 -5 -143 144 0
107 -5 143 -144 0
107 -5 -144 145 0
107 -5 144 -145 0
107 -5 -145 146 0
107 -5 145 -146 0
107 -5 -146 150 0
107 -5 146 -150 0
107 -5 -150 151 0
107 -5 150 -151 0
107 -5 -151 154 0
107 -5 151 -154 0
107 -5 -154 157 0
107 -5 154 -157 0
107 -5 -157 158 0
107 -5 157 -158 0
107 -5 -60 62 0
107 -5 60 -62 0
107 -5 -62 65 0
107 -5 62 -65 0
107 -5 -65 66 0
107 -5 65 -66 0
107 -5 -66 72 0
107 -5 66 -72 0
107 -5 -72 82 0
107 -5 72 -82 0
107 -5 -82 86 0
107 -5 82 -86 0
107 -5 -86 88 0
107 -5 86 -88 0
107 -5 -88 94 0
107 -5 88 -94 0
107 -5 -94 95 0
107 -5 94 -95 0
107 -5 -95 101 0
107 -5 95 -101 0
107 -5 -101 115 0
107 -5 101 -115 0
107 -5 -115 117 0
107 -5 115 -117 0
107 -5 -117 118 0
107 -5 117 -118 0
107 -5 -118 122 0
107 -5 118 -122 0
107 -5 -122 124 0
107 -5 122 -124 0
107 -5 -124 133 0
107 -5 124 -133 0
107 -5 -133 134 0
107 -5 133 -134 0
107 -5 -134 147 0
107 -5 134 -147 0
107 -5 -147 148 0
107 -5 147 -148 0
107 -5 -148 160 0
107 -5 148 -160 0
107 -5 -160 162 0
107 -5 160 -162 0
107 -6 -60 62 0
107 -6 60 -62 0
107 -6 -62 65 0
107 -6 62 -65 0
107 -6 -65 67 0
107 -6 65 -67 0
107 -6 -67 68 0
107 -6 67 -68 0
107 -6 -68 69 0
107 -6 68 -69 0
107 -6 -69 70 0
107 -6 69 -70 0
107 -6 -70 71 0
107 -6 70 -71 0
107 -6 -71 72 0
107 -6 71 -72 0
107 -6 -72 73 0
107 -6 72 -73 0
107 -6 -73 75 0
107 -6 73 -75 0
107 -6 -75 76 0
107 -6 75 -76 0
107 -6 -76 80 0
107 -6 76 -80 0
107 -6 -80 81 0
107 -6 80 -81 0
107 -6 -81 82 0
107 -6 81 -82 0
107 -6 -82 83 0
107 -6 82 -83 0
107 -6 -83 87 0
107 -6 83 -87 0
107 -6 -87 89 0
107 -6 87 -89 0
107 -6 -89 91 0
107 -6 89 -91 0
107 -6 -91 92 0
107 -6 91 -92 0
107 -6 -92 93 0
107 -6 92 -93 0
107 -6 -93 96 0
107 -6 93 -96 0
107 -6 -96 97 0
107 -6 96 -97 0
107 -6 -97 99 0
107 -6 97 -99 0
107 -6 -99 102 0
107 -6 99 -102 0
107 -6 -102 103 0
107 -6 102 -103 0
107 -6 -103 104 0
107 -6 103 -104 0
107 -6 -104 106 0
107 -6 104 -106 0
107 -6 -106 107 0
107 -6 106 -107 0
107 -6 -107 108 0
107 -6 107 -108 0
107 -6 -108 109 0
107 -6 108 -109 0
107 -6 -109 110 0
107 -6 109 -110 0
107 -6 -110 111 0
107 -6 110 -111 0
107 -6 -111 115 0
107 -6 111 -115 0
107 -6 -115 123 0
107 -6 115 -123 0
107 -6 -123 131 0
107 -6 123 -131 0
107 -6 -131 132 0
107 -6 131 -132 0
107 -6 -132 136 0
107 -6 132 -136 0
107 -6 -136 139 0
107 -6 136 -139 0
107 -6 -139 147 0
107 -6 139 -147 0
107 -6 -147 151 0
107 -6 147 -151 0
107 -6 -151 159 0
107 -6 151 -159 0
107 -6 -63 78 0
107 -6 63 -78 0
107 -6 -78 79 0
107 -6 78 -79 0
107 -6 -79 90 0
107 -6 79 -90 0
107 -6 -90 98 0
107 -6 90 -98 0
107 -6 -98 101 0
107 -6 98 -101 0
107 -6 -101 114 0
107 -6 101 -114 0
107 -6 -114 119 0
107 -6 114 -119 0
107 -6 -119 122 0
107 -6 119 -122 0
107 -6 -122 127 0
107 -6 122 -127 0
107 -6 -127 128 0
107 -6 127 -128 0
107 -6 -128 133 0
107 -6 128 -133 0
107 -6 -133 134 0
107 -6 133 -134 0
107 -6 -134 156 0
107 -6 134 -156 0
107 -6 -156 158 0
107 -6 156 -158 0
107 -6 -158 160 0
107 -6 158 -160 0
107 -6 -160 161 0
107 -6 160 -161 0
107 -6 -161 162 0
107 -6 161 -162 0
107 -6 -58 64 0
107 -6 58 -64 0
107 -6 -64 88 0
107 -6 64 -88 0
107 -6 -88 94 0
107 -6 88 -94 0
107 -6 -94 100 0
107 -6 94 -100 0
107 -6 -100 112 0
107 -6 100 -112 0
107 -6 -112 113 0
107 -6 112 -113 0
107 -6 -113 117 0
107 -6 113 -117 0
107 -6 -117 118 0
107 -6 117 -118 0
107 -6 -118 120 0
107 -6 118 -120 0
107 -6 -120 121 0
107 -6 120 -121 0
107 -6 -121 124 0
107 -6 121 -124 0
107 -6 -124 126 0
107 -6 124 -126 0
107 -6 -126 129 0
107 -6 126 -129 0
107 -6 -129 130 0
107 -6 129 -130 0
107 -6 -130 135 0
107 -6 130 -135 0
107 -6 -135 143 0
107 -6 135 -143 0
107 -6 -143 144 0
107 -6 143 -144 0
107 -6 -144 145 0
107 -6 144 -145 0
107 -6 -145 152 0
107 -6 145 -152 0
107 -6 -152 155 0
107 -6 152 -155 0
107 -6 -155 157 0
107 -6 155 -157 0
107 -6 -59 61 0
107 -6 59 -61 0
107 -6 -61 66 0
107 -6 61 -66 0
107 -6 -66 74 0
107 -6 66 -74 0
107 -6 -74 77 0
107 -6 74 -77 0
107 -6 -77 84 0
107 -6 77 -84 0
107 -6 -84 85 0
107 -6 84 -85 0
107 -6 -85 86 0
107 -6 85 -86 0
107 -6 -86 95 0
107 -6 86 -95 0
107 -6 -95 105 0
107 -6 95 -105 0
107 -6 -105 116 0
107 -6 105 -116 0
107 -6 -116 125 0
107 -6 116 -125 0
107 -6 -125 137 0
107 -6 125 -137 0
107 -6 -137 138 0
107 -6 137 -138 0
107 -6 -138 140 0
107 -6 138 -140 0
107 -6 -140 141 0
107 -6 140 -141 0
107 -6 -141 142 0
107 -6 141 -142 0
107 -6 -142 146 0
107 -6 142 -146 0
107 -6 -146 148 0
107 -6 146 -148 0
107 -6 -148 149 0
107 -6 148 -149 0
107 -6 -149 150 0
107 -6 149 -150 0
107 -6 -150 153 0
107 -6 150 -153 0
107 -6 -153 154 0
107 -6 153 -154 0
107 -6 -154 163 0
107 -6 154 -163 0
107 -7 -62 63 0
107 -7 62 -63 0
107 -7 -63 66 0
107 -7 63 -66 0
107 -7 -66 67 0
107 -7 66 -67 0
107 -7 -67 68 0
107 -7 67 -68 0
107 -7 -68 69 0
107 -7 68 -69 0
107 -7 -69 70 0
107 -7 69 -70 0
107 -7 -70 73 0
107 -7 70 -73 0
107 -7 -73 77 0
107 -7 73 -77 0
107 -7 -77 78 0
107 -7 77 -78 0
107 -7 -78 80 0
107 -7 78 -80 0
107 -7 -80 81 0
107 -7 80 -81 0
107 -7 -81 82 0
107 -7 81 -82 0
107 -7 -82 85 0
107 -7 82 -85 0
107 -7 -85 86 0
107 -7 85 -86 0
107 -7 -86 89 0
107 -7 86 -89 0
107 -7 -89 90 0
107 -7 89 -90 0
107 -7 -90 91 0
107 -7 90 -91 0
107 -7 -91 93 0
107 -7 91 -93 0
107 -7 -93 95 0
107 -7 93 -95 0
107 -7 -95 98 0
107 -7 95 -98 0
107 -7 -98 104 0
107 -7 98 -104 0
107 -7 -104 105 0
107 -7 104 -105 0
107 -7 -105 106 0
107 -7 105 -106 0
107 -7 -106 108 0
107 -7 106 -108 0
107 -7 -108 110 0
107 -7 108 -110 0
107 -7 -110 111 0
107 -7 110 -111 0
107 -7 -111 112 0
107 -7 111 -112 0
107 -7 -112 120 0
107 -7 112 -120 0
107 -7 -120 123 0
107 -7 120 -123 0
107 -7 -123 129 0
107 -7 123 -129 0
107 -7 -129 131 0
107 -7 129 -131 0
107 -7 -131 134 0
107 -7 131 -134 0
107 -7 -134 135 0
107 -7 134 -135 0
107 -7 -135 140 0
107 -7 135 -140 0
107 -7 -140 147 0
107 -7 140 -147 0
107 -7 -147 154 0
107 -7 147 -154 0
107 -7 -154 158 0
107 -7 154 -158 0
107 -7 -58 59 0
107 -7 58 -59 0
107 -7 -59 65 0
107 -7 59 -65 0
107 -7 -65 76 0
107 -7 65 -76 0
107 -7 -76 84 0
107 -7 76 -84 0
107 -7 -84 97 0
107 -7 84 -97 0
107 -7 -97 102 0
107 -7 97 -102 0
107 -7 -102 107 0
107 -7 102 -107 0
107 -7 -107 109 0
107 -7 107 -109 0
107 -7 -109 113 0
107 -7 109 -113 0
107 -7 -113 116 0
107 -7 113 -116 0
107 -7 -116 125 0
107 -7 116 -125 0
107 -7 -125 128 0
107 -7 125 -128 0
107 -7 -128 132 0
107 -7 128 -132 0
107 -7 -132 136 0
107 -7 132 -136 0
107 -7 -136 141 0
107 -7 136 -141 0
107 -7 -141 143 0
107 -7 141 -143 0
107 -7 -143 145 0
107 -7 143 -145 0
107 -7 -145 150 0
107 -7 145 -150 0
107 -7 -150 156 0
107 -7 150 -156 0
107 -7 -156 162 0
107 -7 156 -162 0
107 -7 -60 61 0
107 -7 60 -61 0
107 -7 -61 64 0
107 -7 61 -64 0
107 -7 -64 79 0
107 -7 64 -79 0
107 -7 -79 87 0
107 -7 79 -87 0
107 -7 -87 100 0
107 -7 87 -100 0
107 -7 -100 117 0
107 -7 100 -117 0
107 -7 -117 118 0
107 -7 117 -118 0
107 -7 -118 119 0
107 -7 118 -119 0
107 -7 -119 137 0
107 -7 119 -137 0
107 -7 -137 138 0
107 -7 137 -138 0
107 -7 -138 139 0
107 -7 138 -139 0
107 -7 -139 142 0
107 -7 139 -142 0
107 -7 -142 144 0
107 -7 142 -144 0
107 -7 -144 152 0
107 -7 144 -152 0
107 -7 -152 153 0
107 -7 152 -153 0
107 -7 -153 155 0
107 -7 153 -155 0
107 -7 -71 72 0
107 -7 71 -72 0
107 -7 -72 74 0
107 -7 72 -74 0
107 -7 -74 75 0
107 -7 74 -75 0
107 -7 -75 83 0
107 -7 75 -83 0
107 -7 -83 88 0
107 -7 83 -88 0
107 -7 -88 92 0
107 -7 88 -92 0
107 -7 -92 94 0
107 -7 92 -94 0
107 -7 -94 96 0
107 -7 94 -96 0
107 -7 -96 99 0
107 -7 96 -99 0
107 -7 -99 101 0
107 -7 99 -101 0
107 -7 -101 103 0
107 -7 101 -103 0
107 -7 -103 114 0
107 -7 103 -114 0
107 -7 -114 115 0
107 -7 114 -115 0
107 -7 -115 121 0
107 -7 115 -121 0
107 -7 -121 122 0
107 -7 121 -122 0
107 -7 -122 124 0
107 -7 122 -124 0
107 -7 -124 126 0
107 -7 124 -126 0
107 -7 -126 127 0
107 -7 126 -127 0
107 -7 -127 130 0
107 -7 127 -130 0
107 -7 -130 133 0
107 -7 130 -133 0
107 -7 -133 146 0
107 -7 133 -146 0
107 -7 -146 148 0
107 -7 146 -148 0
107 -7 -148 149 0
107 -7 148 -149 0
107 -7 -149 151 0
107 -7 149 -151 0
107 -7 -151 157 0
107 -7 151 -157 0
107 -7 -157 159 0
107 -7 157 -159 0
107 -7 -159 160 0
107 -7 159 -160 0
107 -7 -160 161 0
107 -7 160 -161 0
107 -7 -161 163 0
107 -7 161 -163 0
107 -8 -58 60 0
107 -8 58 -60 0
107 -8 -60 61 0
107 -8 60 -61 0
107 -8 -61 63 0
107 -8 61 -63 0
107 -8 -63 65 0
107 -8 63 -65 0
107 -8 -65 66 0
107 -8 65 -66 0
107 -8 -66 70 0
107 -8 66 -70 0
107 -8 -70 77 0
107 -8 70 -77 0
107 -8 -77 82 0
107 -8 77 -82 0
107 -8 -82 83 0
107 -8 82 -83 0
107 -8 -83 89 0
107 -8 83 -89 0
107 -8 -89 90 0
107 -8 89 -90 0
107 -8 -90 93 0
107 -8 90 -93 0
107 -8 -93 94 0
107 -8 93 -94 0
107 -8 -94 96 0
107 -8 94 -96 0
107 -8 -96 99 0
107 -8 96 -99 0
107 -8 -99 100 0
107 -8 99 -100 0
107 -8 -100 104 0
107 -8 100 -104 0
107 -8 -104 106 0
107 -8 104 -106 0
107 -8 -106 108 0
107 -8 106 -108 0
107 -8 -108 114 0
107 -8 108 -114 0
107 -8 -114 116 0
107 -8 114 -116 0
107 -8 -116 117 0
107 -8 116 -117 0
107 -8 -117 120 0
107 -8 117 -120 0
107 -8 -120 125 0
107 -8 120 -125 0
107 -8 -125 128 0
107 -8 125 -128 0
107 -8 -128 131 0
107 -8 128 -131 0
107 -8 -131 135 0
107 -8 131 -135 0
107 -8 -135 136 0
107 -8 135 -136 0
107 -8 -136 140 0
107 -8 136 -140 0
107 -8 -140 145 0
107 -8 140 -145 0
107 -8 -145 155 0
107 -8 145 -155 0
107 -8 -155 161 0
107 -8 155 -161 0
107 -8 -161 163 0
107 -8 161 -163 0
107 -8 -59 91 0
107 -8 59 -91 0
107 -8 -91 98 0
107 -8 91 -98 0
107 -8 -98 101 0
107 -8 98 -101 0
107 -8 -101 107 0
107 -8 101 -107 0
107 -8 -107 111 0
107 -8 107 -111 0
107 -8 -111 113 0
107 -8 111 -113 0
107 -8 -113 115 0
107 -8 113 -115 0
107 -8 -115 118 0
107 -8 115 -118 0
107 -8 -118 119 0
107 -8 118 -119 0
107 -8 -119 122 0
107 -8 119 -122 0
107 -8 -122 126 0
107 -8 122 -126 0
107 -8 -126 130 0
107 -8 126 -130 0
107 -8 -130 133 0
107 -8 130 -133 0
107 -8 -133 137 0
107 -8 133 -137 0
107 -8 -137 138 0
107 -8 137 -138 0
107 -8 -138 139 0
107 -8 138 -139 0
107 -8 -139 147 0
107 -8 139 -147 0
107 -8 -147 149 0
107 -8 147 -149 0
107 -8 -149 160 0
107 -8 149 -160 0
107 -8 -73 76 0
107 -8 73 -76 0
107 -8 -76 81 0
107 -8 76 -81 0
107 -8 -81 84 0
107 -8 81 -84 0
107 -8 -84 102 0
107 -8 84 -102 0
107 -8 -102 105 0
107 -8 102 -105 0
107 -8 -105 109 0
107 -8 105 -109 0
107 -8 -109 112 0
107 -8 109 -112 0
107 -8 -112 121 0
107 -8 112 -121 0
107 -8 -121 123 0
107 -8 121 -123 0
107 -8 -123 124 0
107 -8 123 -124 0
107 -8 -124 129 0
107 -8 124 -129 0
107 -8 -129 134 0
107 -8 129 -134 0
107 -8 -134 142 0
107 -8 134 -142 0
107 -8 -142 146 0
107 -8 142 -146 0
107 -8 -146 152 0
107 -8 146 -152 0
107 -8 -152 154 0
107 -8 152 -154 0
107 -8 -154 156 0
107 -8 154 -156 0
107 -8 -156 157 0
107 -8 156 -157 0
107 -8 -157 159 0
107 -8 157 -159 0
107 -8 -62 64 0
107 -8 62 -64 0
107 -8 -64 67 0
107 -8 64 -67 0
107 -8 -67 68 0
107 -8 67 -68 0
107 -8 -68 69 0
107 -8 68 -69 0
107 -8 -69 71 0
107 -8 69 -71 0
107 -8 -71 72 0
107 -8 71 -72 0
107 -8 -72 74 0
107 -8 72 -74 0
107 -8 -74 75 0
107 -8 74 -75 0
107 -8 -75 78 0
107 -8 75 -78 0
107 -8 -78 79 0
107 -8 78 -79 0
107 -8 -79 80 0
107 -8 79 -80 0
107 -8 -80 85 0
107 -8 80 -85 0
107 -8 -85 86 0
107 -8 85 -86 0
107 -8 -86 87 0
107 -8 86 -87 0
107 -8 -87 88 0
107 -8 87 -88 0
107 -8 -88 92 0
107 -8 88 -92 0
107 -8 -92 95 0
107 -8 92 -95 0
107 -8 -95 97 0
107 -8 95 -97 0
107 -8 -97 103 0
107 -8 97 -103 0
107 -8 -103 110 0
107 -8 103 -110 0
107 -8 -110 127 0
107 -8 110 -127 0
107 -8 -127 132 0
107 -8 127 -132 0
107 -8 -132 141 0
107 -8 132 -141 0
107 -8 -141 143 0
107 -8 141 -143 0
107 -8 -143 144 0
107 -8 143 -144 0
107 -8 -144 148 0
107 -8 144 -148 0
107 -8 -148 150 0
107 -8 148 -150 0
107 -8 -150 151 0
107 -8 150 -151 0
107 -8 -151 153 0
107 -8 151 -153 0
107 -8 -153 158 0
107 -8 153 -158 0
107 -8 -158 162 0
107 -8 158 -162 0
107 -9 -58 65 0
107 -9 58 -65 0
107 -9 -65 68 0
107 -9 65 -68 0
107 -9 -68 70 0
107 -9 68 -70 0
107 -9 -70 73 0
107 -9 70 -73 0
107 -9 -73 81 0
107 -9 73 -81 0
107 -9 -81 82 0
107 -9 81 -82 0
107 -9 -82 83 0
107 -9 82 -83 0
107 -9 -83 85 0
107 -9 83 -85 0
107 -9 -85 89 0
107 -9 85 -89 0
107 -9 -89 93 0
107 -9 89 -93 0
107 -9 -93 97 0
107 -9 93 -97 0
107 -9 -97 104 0
107 -9 97 -104 0
107 -9 -104 105 0
107 -9 104 -105 0
107 -9 -105 106 0
107 -9 105 -106 0
107 -9 -106 108 0
107 -9 106 -108 0
107 -9 -108 110 0
107 -9 108 -110 0
107 -9 -110 116 0
107 -9 110 -116 0
107 -9 -116 119 0
107 -9 116 -119 0
107 -9 -119 122 0
107 -9 119 -122 0
107 -9 -122 124 0
107 -9 122 -124 0
107 -9 -124 125 0
107 -9 124 -125 0
107 -9 -125 126 0
107 -9 125 -126 0
107 -9 -126 127 0
107 -9 126 -127 0
107 -9 -127 136 0
107 -9 127 -136 0
107 -9 -136 139 0
107 -9 136 -139 0
107 -9 -139 141 0
107 -9 139 -141 0
107 -9 -141 142 0
107 -9 141 -142 0
107 -9 -142 153 0
107 -9 142 -153 0
107 -9 -153 154 0
107 -9 153 -154 0
107 -9 -154 156 0
107 -9 154 -156 0
107 -9 -156 160 0
107 -9 156 -160 0
107 -9 -160 163 0
107 -9 160 -163 0
107 -9 -78 79 0
107 -9 78 -79 0
107 -9 -79 84 0
107 -9 79 -84 0
107 -9 -84 86 0
107 -9 84 -86 0
107 -9 -86 88 0
107 -9 86 -88 0
107 -9 -88 90 0
107 -9 88 -90 0
107 -9 -90 99 0
107 -9 90 -99 0
107 -9 -99 101 0
107 -9 99 -101 0
107 -9 -101 107 0
107 -9 101 -107 0
107 -9 -107 114 0
107 -9 107 -114 0
107 -9 -114 117 0
107 -9 114 -117 0
107 -9 -117 128 0
107 -9 117 -128 0
107 -9 -128 129 0
107 -9 128 -129 0
107 -9 -129 132 0
107 -9 129 -132 0
107 -9 -132 133 0
107 -9 132 -133 0
107 -9 -133 134 0
107 -9 133 -134 0
107 -9 -134 135 0
107 -9 134 -135 0
107 -9 -135 149 0
107 -9 135 -149 0
107 -9 -149 150 0
107 -9 149 -150 0
107 -9 -150 155 0
107 -9 150 -155 0
107 -9 -155 161 0
107 -9 155 -161 0
107 -9 -161 162 0
107 -9 161 -162 0
107 -9 -60 63 0
107 -9 60 -63 0
107 -9 -63 64 0
107 -9 63 -64 0
107 -9 -64 80 0
107 -9 64 -80 0
107 -9 -80 98 0
107 -9 80 -98 0
107 -9 -98 111 0
107 -9 98 -111 0
107 -9 -111 115 0
107 -9 111 -115 0
107 -9 -115 120 0
107 -9 115 -120 0
107 -9 -120 121 0
107 -9 120 -121 0
107 -9 -121 123 0
107 -9 121 -123 0
107 -9 -123 131 0
107 -9 123 -131 0
107 -9 -131 138 0
107 -9 131 -138 0
107 -9 -138 144 0
107 -9 138 -144 0
107 -9 -144 145 0
107 -9 144 -145 0
107 -9 -145 146 0
107 -9 145 -146 0
107 -9 -146 147 0
107 -9 146 -147 0
107 -9 -147 148 0
107 -9 147 -148 0
107 -9 -148 158 0
107 -9 148 -158 0
107 -9 -158 159 0
107 -9 158 -159 0
107 -9 -59 61 0
107 -9 59 -61 0
107 -9 -61 62 0
107 -9 61 -62 0
107 -9 -62 66 0
107 -9 62 -66 0
107 -9 -66 67 0
107 -9 66 -67 0
107 -9 -67 69 0
107 -9 67 -69 0
107 -9 -69 71 0
107 -9 69 -71 0
107 -9 -71 72 0
107 -9 71 -72 0
107 -9 -72 74 0
107 -9 72 -74 0
107 -9 -74 75 0
107 -9 74 -75 0
107 -9 -75 76 0
107 -9 75 -76 0
107 -9 -76 77 0
107 -9 76 -77 0
107 -9 -77 87 0
107 -9 77 -87 0
107 -9 -87 91 0
107 -9 87 -91 0
107 -9 -91 92 0
107 -9 91 -92 0
107 -9 -92 94 0
107 -9 92 -94 0
107 -9 -94 95 0
107 -9 94 -95 0
107 -9 -95 96 0
107 -9 95 -96 0
107 -9 -96 100 0
107 -9 96 -100 0
107 -9 -100 102 0
107 -9 100 -102 0
107 -9 -102 103 0
107 -9 102 -103 0
107 -9 -103 109 0
107 -9 103 -109 0
107 -9 -109 112 0
107 -9 109 -112 0
107 -9 -112 113 0
107 -9 112 -113 0
107 -9 -113 118 0
107 -9 113 -118 0
107 -9 -118 130 0
107 -9 118 -130 0
107 -9 -130 137 0
107 -9 130 -137 0
107 -9 -137 140 0
107 -9 137 -140 0
107 -9 -140 143 0
107 -9 140 -143 0
107 -9 -143 151 0
107 -9 143 -151 0
107 -9 -151 152 0
107 -9 151 -152 0
107 -9 -152 157 0
107 -9 152 -157 0
107 -10 -60 62 0
107 -10 60 -62 0
107 -10 -62 65 0
107 -10 62 -65 0
107 -10 -65 66 0
107 -10 65 -66 0
107 -10 -66 68 0
107 -10 66 -68 0
107 -10 -68 70 0
107 -10 68 -70 0
107 -10 -70 73 0
107 -10 70 -73 0
107 -10 -73 76 0
107 -10 73 -76 0
107 -10 -76 79 0
107 -10 76 -79 0
107 -10 -79 80 0
107 -10 79 -80 0
107 -10 -80 81 0
107 -10 80 -81 0
107 -10 -81 84 0
107 -10 81 -84 0
107 -10 -84 85 0
107 -10 84 -85 0
107 -10 -85 88 0
107 -10 85 -88 0
107 -10 -88 89 0
107 -10 88 -89 0
107 -10 -89 91 0
107 -10 89 -91 0
107 -10 -91 93 0
107 -10 91 -93 0
107 -10 -93 94 0
107 -10 93 -94 0
107 -10 -94 97 0
107 -10 94 -97 0
107 -10 -97 98 0
107 -10 97 -98 0
107 -10 -98 101 0
107 -10 98 -101 0
107 -10 -101 103 0
107 -10 101 -103 0
107 -10 -103 104 0
107 -10 103 -104 0
107 -10 -104 105 0
107 -10 104 -105 0
107 -10 -105 106 0
107 -10 105 -106 0
107 -10 -106 108 0
107 -10 106 -108 0
107 -10 -108 118 0
107 -10 108 -118 0
107 -10 -118 124 0
107 -10 118 -124 0
107 -10 -124 126 0
107 -10 124 -126 0
107 -10 -126 129 0
107 -10 126 -129 0
107 -10 -129 132 0
107 -10 129 -132 0
107 -10 -132 153 0
107 -10 132 -153 0
107 -10 -153 156 0
107 -10 153 -156 0
107 -10 -156 157 0
107 -10 156 -157 0
107 -10 -157 160 0
107 -10 157 -160 0
107 -10 -160 162 0
107 -10 160 -162 0
107 -10 -69 75 0
107 -10 69 -75 0
107 -10 -75 77 0
107 -10 75 -77 0
107 -10 -77 86 0
107 -10 77 -86 0
107 -10 -86 100 0
107 -10 86 -100 0
107 -10 -100 107 0
107 -10 100 -107 0
107 -10 -107 109 0
107 -10 107 -109 0
107 -10 -109 112 0
107 -10 109 -112 0
107 -10 -112 113 0
107 -10 112 -113 0
107 -10 -113 120 0
107 -10 113 -120 0
107 -10 -120 123 0
107 -10 120 -123 0
107 -10 -123 125 0
107 -10 123 -125 0
107 -10 -125 130 0
107 -10 125 -130 0
107 -10 -130 134 0
107 -10 130 -134 0
107 -10 -134 138 0
107 -10 134 -138 0
107 -10 -138 139 0
107 -10 138 -139 0
107 -10 -139 145 0
107 -10 139 -145 0
107 -10 -145 146 0
107 -10 145 -146 0
107 -10 -146 147 0
107 -10 146 -147 0
107 -10 -147 148 0
107 -10 147 -148 0
107 -10 -148 154 0
107 -10 148 -154 0
107 -10 -154 159 0
107 -10 154 -159 0
107 -10 -59 61 0
107 -10 59 -61 0
107 -10 -61 63 0
107 -10 61 -63 0
107 -10 -63 64 0
107 -10 63 -64 0
107 -10 -64 78 0
107 -10 64 -78 0
107 -10 -78 90 0
107 -10 78 -90 0
107 -10 -90 99 0
107 -10 90 -99 0
107 -10 -99 115 0
107 -10 99 -115 0
107 -10 -115 117 0
107 -10 115 -117 0
107 -10 -117 121 0
107 -10 117 -121 0
107 -10 -121 122 0
107 -10 121 -122 0
107 -10 -122 127 0
107 -10 122 -127 0
107 -10 -127 128 0
107 -10 127 -128 0
107 -10 -128 131 0
107 -10 128 -131 0
107 -10 -131 133 0
107 -10 131 -133 0
107 -10 -133 136 0
107 -10 133 -136 0
107 -10 -136 140 0
107 -10 136 -140 0
107 -10 -140 143 0
107 -10 140 -143 0
107 -10 -143 149 0
107 -10 143 -149 0
107 -10 -149 161 0
107 -10 149 -161 0
107 -10 -58 67 0
107 -10 58 -67 0
107 -10 -67 71 0
107 -10 67 -71 0
107 -10 -71 72 0
107 -10 71 -72 0
107 -10 -72 74 0
107 -10 72 -74 0
107 -10 -74 82 0
107 -10 74 -82 0
107 -10 -82 83 0
107 -10 82 -83 0
107 -10 -83 87 0
107 -10 83 -87 0
107 -10 -87 92 0
107 -10 87 -92 0
107 -10 -92 95 0
107 -10 92 -95 0
107 -10 -95 96 0
107 -10 95 -96 0
107 -10 -96 102 0
107 -10 96 -102 0
107 -10 -102 110 0
107 -10 102 -110 0
107 -10 -110 111 0
107 -10 110 -111 0
107 -10 -111 114 0
107 -10 111 -114 0
107 -10 -114 116 0
107 -10 114 -116 0
107 -10 -116 119 0
107 -10 116 -119 0
107 -10 -119 135 0
107 -10 119 -135 0
107 -10 -135 137 0
107 -10 135 -137 0
107 -10 -137 141 0
107 -10 137 -141 0
107 -10 -141 142 0
107 -10 141 -142 0
107 -10 -142 144 0
107 -10 142 -144 0
107 -10 -144 150 0
107 -10 144 -150 0
107 -10 -150 151 0
107 -10 150 -151 0
107 -10 -151 152 0
107 -10 151 -152 0
107 -10 -152 155 0
107 -10 152 -155 0
107 -10 -155 158 0
107 -10 155 -158 0
107 -10 -158 163 0
107 -10 158 -163 0
107 -11 -58 59 0
107 -11 58 -59 0
107 -11 -59 60 0
107 -11 59 -60 0
107 -11 -60 62 0
107 -11 60 -62 0
107 -11 -62 63 0
107 -11 62 -63 0
107 -11 -63 64 0
107 -11 63 -64 0
107 -11 -64 65 0
107 -11 64 -65 0
107 -11 -65 68 0
107 -11 65 -68 0
107 -11 -68 69 0
107 -11 68 -69 0
107 -11 -69 70 0
107 -11 69 -70 0
107 -11 -70 73 0
107 -11 70 -73 0
107 -11 -73 75 0
107 -11 73 -75 0
107 -11 -75 76 0
107 -11 75 -76 0
107 -11 -76 77 0
107 -11 76 -77 0
107 -11 -77 78 0
107 -11 77 -78 0
107 -11 -78 81 0
107 -11 78 -81 0
107 -11 -81 86 0
107 -11 81 -86 0
107 -11 -86 87 0
107 -11 86 -87 0
107 -11 -87 91 0
107 -11 87 -91 0
107 -11 -91 101 0
107 -11 91 -101 0
107 -11 -101 107 0
107 -11 101 -107 0
107 -11 -107 108 0
107 -11 107 -108 0
107 -11 -108 112 0
107 -11 108 -112 0
107 -11 -112 114 0
107 -11 112 -114 0
107 -11 -114 122 0
107 -11 114 -122 0
107 -11 -122 125 0
107 -11 122 -125 0
107 -11 -125 131 0
107 -11 125 -131 0
107 -11 -131 132 0
107 -11 131 -132 0
107 -11 -132 135 0
107 -11 132 -135 0
107 -11 -135 136 0
107 -11 135 -136 0
107 -11 -136 137 0
107 -11 136 -137 0
107 -11 -137 144 0
107 -11 137 -144 0
107 -11 -144 145 0
107 -11 144 -145 0
107 -11 -145 147 0
107 -11 145 -147 0
107 -11 -147 153 0
107 -11 147 -153 0
107 -11 -153 161 0
107 -11 153 -161 0
107 -11 -161 162 0
107 -11 161 -162 0
107 -11 -162 163 0
107 -11 162 -163 0
107 -11 -67 74 0
107 -11 67 -74 0
107 -11 -74 83 0
107 -11 74 -83 0
107 -11 -83 84 0
107 -11 83 -84 0
107 -11 -84 90 0
107 -11 84 -90 0
107 -11 -90 100 0
107 -11 90 -100 0
107 -11 -100 116 0
107 -11 100 -116 0
107 -11 -116 119 0
107 -11 116 -119 0
107 -11 -119 124 0
107 -11 119 -124 0
107 -11 -124 127 0
107 -11 124 -127 0
107 -11 -127 128 0
107 -11 127 -128 0
107 -11 -128 130 0
107 -11 128 -130 0
107 -11 -130 133 0
107 -11 130 -133 0
107 -11 -133 141 0
107 -11 133 -141 0
107 -11 -141 143 0
107 -11 141 -143 0
107 -11 -143 151 0
107 -11 143 -151 0
107 -11 -151 154 0
107 -11 151 -154 0
107 -11 -154 156 0
107 -11 154 -156 0
107 -11 -156 157 0
107 -11 156 -157 0
107 -11 -157 158 0
107 -11 157 -158 0
107 -11 -158 159 0
107 -11 158 -159 0
107 -11 -159 160 0
107 -11 159 -160 0
107 -11 -80 88 0
107 -11 80 -88 0
107 -11 -88 89 0
107 -11 88 -89 0
107 -11 -89 93 0
107 -11 89 -93 0
107 -11 -93 99 0
107 -11 93 -99 0
107 -11 -99 104 0
107 -11 99 -104 0
107 -11 -104 109 0
107 -11 104 -109 0
107 -11 -109 120 0
107 -11 109 -120 0
107 -11 -120 139 0
107 -11 120 -139 0
107 -11 -139 142 0
107 -11 139 -142 0
107 -11 -142 146 0
107 -11 142 -146 0
107 -11 -146 148 0
107 -11 146 -148 0
107 -11 -148 149 0
107 -11 148 -149 0
107 -11 -149 150 0
107 -11 149 -150 0
107 -11 -150 152 0
107 -11 150 -152 0
107 -11 -61 66 0
107 -11 61 -66 0
107 -11 -66 71 0
107 -11 66 -71 0
107 -11 -71 72 0
107 -11 71 -72 0
107 -11 -72 79 0
107 -11 72 -79 0
107 -11 -79 82 0
107 -11 79 -82 0
107 -11 -82 85 0
107 -11 82 -85 0
107 -11 -85 92 0
107 -11 85 -92 0
107 -11 -92 94 0
107 -11 92 -94 0
107 -11 -94 95 0
107 -11 94 -95 0
107 -11 -95 96 0
107 -11 95 -96 0
107 -11 -96 97 0
107 -11 96 -97 0
107 -11 -97 98 0
107 -11 97 -98 0
107 -11 -98 102 0
107 -11 98 -102 0
107 -11 -102 103 0
107 -11 102 -103 0
107 -11 -103 105 0
107 -11 103 -105 0
107 -11 -105 106 0
107 -11 105 -106 0
107 -11 -106 110 0
107 -11 106 -110 0
107 -11 -110 111 0
107 -11 110 -111 0
107 -11 -111 113 0
107 -11 111 -113 0
107 -11 -113 115 0
107 -11 113 -115 0
107 -11 -115 117 0
107 -11 115 -117 0
107 -11 -117 118 0
107 -11 117 -118 0
107 -11 -118 121 0
107 -11 118 -121 0
107 -11 -121 123 0
107 -11 121 -123 0
107 -11 -123 126 0
107 -11 123 -126 0
107 -11 -126 129 0
107 -11 126 -129 0
107 -11 -129 134 0
107 -11 129 -134 0
107 -11 -134 138 0
107 -11 134 -138 0
107 -11 -138 140 0
107 -11 138 -140 0
107 -11 -140 155 0
107 -11 140 -155 0
107 -12 -66 77 0
107 -12 66 -77 0
107 -12 -77 78 0
107 -12 77 -78 0
107 -12 -78 81 0
107 -12 78 -81 0
107 -12 -81 93 0
107 -12 81 -93 0
107 -12 -93 101 0
107 -12 93 -101 0
107 -12 -101 106 0
107 -12 101 -106 0
107 -12 -106 108 0
107 -12 106 -108 0
107 -12 -108 110 0
107 -12 108 -110 0
107 -12 -110 112 0
107 -12 110 -112 0
107 -12 -112 113 0
107 -12 112 -113 0
107 -12 -113 116 0
107 -12 113 -116 0
107 -12 -116 119 0
107 -12 116 -119 0
107 -12 -119 120 0
107 -12 119 -120 0
107 -12 -120 121 0
107 -12 120 -121 0
107 -12 -121 124 0
107 -12 121 -124 0
107 -12 -124 125 0
107 -12 124 -125 0
107 -12 -125 146 0
107 -12 125 -146 0
107 -12 -146 158 0
107 -12 146 -158 0
107 -12 -158 160 0
107 -12 158 -160 0
107 -12 -160 163 0
107 -12 160 -163 0
107 -12 -58 59 0
107 -12 58 -59 0
107 -12 -59 60 0
107 -12 59 -60 0
107 -12 -60 62 0
107 -12 60 -62 0
107 -12 -62 65 0
107 -12 62 -65 0
107 -12 -65 67 0
107 -12 65 -67 0
107 -12 -67 71 0
107 -12 67 -71 0
107 -12 -71 72 0
107 -12 71 -72 0
107 -12 -72 74 0
107 -12 72 -74 0
107 -12 -74 76 0
107 -12 74 -76 0
107 -12 -76 79 0
107 -12 76 -79 0
107 -12 -79 80 0
107 -12 79 -80 0
107 -12 -80 84 0
107 -12 80 -84 0
107 -12 -84 86 0
107 -12 84 -86 0
107 -12 -86 91 0
107 -12 86 -91 0
107 -12 -91 98 0
107 -12 91 -98 0
107 -12 -98 114 0
107 -12 98 -114 0
107 -12 -114 126 0
107 -12 114 -126 0
107 -12 -126 128 0
107 -12 126 -128 0
107 -12 -128 134 0
107 -12 128 -134 0
107 -12 -134 135 0
107 -12 134 -135 0
107 -12 -135 138 0
107 -12 135 -138 0
107 -12 -138 140 0
107 -12 138 -140 0
107 -12 -140 144 0
107 -12 140 -144 0
107 -12 -144 145 0
107 -12 144 -145 0
107 -12 -145 148 0
107 -12 145 -148 0
107 -12 -148 150 0
107 -12 148 -150 0
107 -12 -150 151 0
107 -12 150 -151 0
107 -12 -151 152 0
107 -12 151 -152 0
107 -12 -152 153 0
107 -12 152 -153 0
107 -12 -153 154 0
107 -12 153 -154 0
107 -12 -61 63 0
107 -12 61 -63 0
107 -12 -63 64 0
107 -12 63 -64 0
107 -12 -64 69 0
107 -12 64 -69 0
107 -12 -69 75 0
107 -12 69 -75 0
107 -12 -75 83 0
107 -12 75 -83 0
107 -12 -83 90 0
107 -12 83 -90 0
107 -12 -90 97 0
107 -12 90 -97 0
107 -12 -97 105 0
107 -12 97 -105 0
107 -12 -105 107 0
107 -12 105 -107 0
107 -12 -107 111 0
107 -12 107 -111 0
107 -12 -111 115 0
107 -12 111 -115 0
107 -12 -115 118 0
107 -12 115 -118 0
107 -12 -118 122 0
107 -12 118 -122 0
107 -12 -122 123 0
107 -12 122 -123 0
107 -12 -123 129 0
107 -12 123 -129 0
107 -12 -129 130 0
107 -12 129 -130 0
107 -12 -130 131 0
107 -12 130 -131 0
107 -12 -131 132 0
107 -12 131 -132 0
107 -12 -132 133 0
107 -12 132 -133 0
107 -12 -133 137 0
107 -12 133 -137 0
107 -12 -137 141 0
107 -12 137 -141 0
107 -12 -141 142 0
107 -12 141 -142 0
107 -12 -142 147 0
107 -12 142 -147 0
107 -12 -147 156 0
107 -12 147 -156 0
107 -12 -68 70 0
107 -12 68 -70 0
107 -12 -70 73 0
107 -12 70 -73 0
107 -12 -73 82 0
107 -12 73 -82 0
107 -12 -82 85 0
107 -12 82 -85 0
107 -12 -85 87 0
107 -12 85 -87 0
107 -12 -87 88 0
107 -12 87 -88 0
107 -12 -88 89 0
107 -12 88 -89 0
107 -12 -89 92 0
107 -12 89 -92 0
107 -12 -92 94 0
107 -12 92 -94 0
107 -12 -94 95 0
107 -12 94 -95 0
107 -12 -95 96 0
107 -12 95 -96 0
107 -12 -96 99 0
107 -12 96 -99 0
107 -12 -99 100 0
107 -12 99 -100 0
107 -12 -100 102 0
107 -12 100 -102 0
107 -12 -102 103 0
107 -12 102 -103 0
107 -12 -103 104 0
107 -12 103 -104 0
107 -12 -104 109 0
107 -12 104 -109 0
107 -12 -109 117 0
107 -12 109 -117 0
107 -12 -117 127 0
107 -12 117 -127 0
107 -12 -127 136 0
107 -12 127 -136 0
107 -12 -136 139 0
107 -12 136 -139 0
107 -12 -139 143 0
107 -12 139 -143 0
107 -12 -143 149 0
107 -12 143 -149 0
107 -12 -149 155 0
107 -12 149 -155 0
107 -12 -155 157 0
107 -12 155 -157 0
107 -12 -157 159 0
107 -12 157 -159 0
107 -12 -159 161 0
107 -12 159 -161 0
107 -12 -161 162 0
107 -12 161 -162 0
107 -13 -59 65 0
107 -13 59 -65 0
107 -13 -65 70 0
107 -13 65 -70 0
107 -13 -70 75 0
107 -13 70 -75 0
107 -13 -75 76 0
107 -13 75 -76 0
107 -13 -76 83 0
107 -13 76 -83 0
107 -13 -83 84 0
107 -13 83 -84 0
107 -13 -84 91 0
107 -13 84 -91 0
107 -13 -91 92 0
107 -13 91 -92 0
107 -13 -92 99 0
107 -13 92 -99 0
107 -13 -99 100 0
107 -13 99 -100 0
107 -13 -100 101 0
107 -13 100 -101 0
107 -13 -101 102 0
107 -13 101 -102 0
107 -13 -102 111 0
107 -13 102 -111 0
107 -13 -111 113 0
107 -13 111 -113 0
107 -13 -113 115 0
107 -13 113 -115 0
107 -13 -115 116 0
107 -13 115 -116 0
107 -13 -116 123 0
107 -13 116 -123 0
107 -13 -123 126 0
107 -13 123 -126 0
107 -13 -126 133 0
107 -13 126 -133 0
107 -13 -133 138 0
107 -13 133 -138 0
107 -13 -138 142 0
107 -13 138 -142 0
107 -13 -142 147 0
107 -13 142 -147 0
107 -13 -147 148 0
107 -13 147 -148 0
107 -13 -148 150 0
107 -13 148 -150 0
107 -13 -150 151 0
107 -13 150 -151 0
107 -13 -151 156 0
107 -13 151 -156 0
107 -13 -156 160 0
107 -13 156 -160 0
107 -13 -160 163 0
107 -13 160 -163 0
107 -13 -66 81 0
107 -13 66 -81 0
107 -13 -81 97 0
107 -13 81 -97 0
107 -13 -97 103 0
107 -13 97 -103 0
107 -13 -103 105 0
107 -13 103 -105 0
107 -13 -105 117 0
107 -13 105 -117 0
107 -13 -117 121 0
107 -13 117 -121 0
107 -13 -121 130 0
107 -13 121 -130 0
107 -13 -130 137 0
107 -13 130 -137 0
107 -13 -137 143 0
107 -13 137 -143 0
107 -13 -143 146 0
107 -13 143 -146 0
107 -13 -146 155 0
107 -13 146 -155 0
107 -13 -155 157 0
107 -13 155 -157 0
107 -13 -157 159 0
107 -13 157 -159 0
107 -13 -58 63 0
107 -13 58 -63 0
107 -13 -63 64 0
107 -13 63 -64 0
107 -13 -64 68 0
107 -13 64 -68 0
107 -13 -68 69 0
107 -13 68 -69 0
107 -13 -69 72 0
107 -13 69 -72 0
107 -13 -72 73 0
107 -13 72 -73 0
107 -13 -73 74 0
107 -13 73 -74 0
107 -13 -74 79 0
107 -13 74 -79 0
107 -13 -79 87 0
107 -13 79 -87 0
107 -13 -87 89 0
107 -13 87 -89 0
107 -13 -89 90 0
107 -13 89 -90 0
107 -13 -90 93 0
107 -13 90 -93 0
107 -13 -93 107 0
107 -13 93 -107 0
107 -13 -107 114 0
107 -13 107 -114 0
107 -13 -114 119 0
107 -13 114 -119 0
107 -13 -119 120 0
107 -13 119 -120 0
107 -13 -120 125 0
107 -13 120 -125 0
107 -13 -125 131 0
107 -13 125 -131 0
107 -13 -131 132 0
107 -13 131 -132 0
107 -13 -132 134 0
107 -13 132 -134 0
107 -13 -134 135 0
107 -13 134 -135 0
107 -13 -135 141 0
107 -13 135 -141 0
107 -13 -141 145 0
107 -13 141 -145 0
107 -13 -145 152 0
107 -13 145 -152 0
107 -13 -152 153 0
107 -13 152 -153 0
107 -13 -153 158 0
107 -13 153 -158 0
107 -13 -158 161 0
107 -13 158 -161 0
107 -13 -161 162 0
107 -13 161 -162 0
107 -13 -60 61 0
107 -13 60 -61 0
107 -13 -61 62 0
107 -13 61 -62 0
107 -13 -62 67 0
107 -13 62 -67 0
107 -13 -67 71 0
107 -13 67 -71 0
107 -13 -71 77 0
107 -13 71 -77 0
107 -13 -77 78 0
107 -13 77 -78 0
107 -13 -78 80 0
107 -13 78 -80 0
107 -13 -80 82 0
107 -13 80 -82 0
107 -13 -82 85 0
107 -13 82 -85 0
107 -13 -85 86 0
107 -13 85 -86 0
107 -13 -86 88 0
107 -13 86 -88 0
107 -13 -88 94 0
107 -13 88 -94 0
107 -13 -94 95 0
107 -13 94 -95 0
107 -13 -95 96 0
107 -13 95 -96 0
107 -13 -96 98 0
107 -13 96 -98 0
107 -13 -98 104 0
107 -13 98 -104 0
107 -13 -104 106 0
107 -13 104 -106 0
107 -13 -106 108 0
107 -13 106 -108 0
107 -13 -108 109 0
107 -13 108 -109 0
107 -13 -109 110 0
107 -13 109 -110 0
107 -13 -110 112 0
107 -13 110 -112 0
107 -13 -112 118 0
107 -13 112 -118 0
107 -13 -118 122 0
107 -13 118 -122 0
107 -13 -122 124 0
107 -13 122 -124 0
107 -13 -124 127 0
107 -13 124 -127 0
107 -13 -127 128 0
107 -13 127 -128 0
107 -13 -128 129 0
107 -13 128 -129 0
107 -13 -129 136 0
107 -13 129 -136 0
107 -13 -136 139 0
107 -13 136 -139 0
107 -13 -139 140 0
107 -13 139 -140 0
107 -13 -140 144 0
107 -13 140 -144 0
107 -13 -144 149 0
107 -13 144 -149 0
107 -13 -149 154 0
107 -13 149 -154 0
107 -14 -60 61 0
107 -14 60 -61 0
107 -14 -61 62 0
107 -14 61 -62 0
107 -14 -62 63 0
107 -14 62 -63 0
107 -14 -63 64 0
107 -14 63 -64 0
107 -14 -64 71 0
107 -14 64 -71 0
107 -14 -71 75 0
107 -14 71 -75 0
107 -14 -75 82 0
107 -14 75 -82 0
107 -14 -82 86 0
107 -14 82 -86 0
107 -14 -86 108 0
107 -14 86 -108 0
107 -14 -108 109 0
107 -14 108 -109 0
107 -14 -109 113 0
107 -14 109 -113 0
107 -14 -113 115 0
107 -14 113 -115 0
107 -14 -115 117 0
107 -14 115 -117 0
107 -14 -117 121 0
107 -14 117 -121 0
107 -14 -121 125 0
107 -14 121 -125 0
107 -14 -125 131 0
107 -14 125 -131 0
107 -14 -131 134 0
107 -14 131 -134 0
107 -14 -134 136 0
107 -14 134 -136 0
107 -14 -136 140 0
107 -14 136 -140 0
107 -14 -140 143 0
107 -14 140 -143 0
107 -14 -143 148 0
107 -14 143 -148 0
107 -14 -148 152 0
107 -14 148 -152 0
107 -14 -152 161 0
107 -14 152 -161 0
107 -14 -58 65 0
107 -14 58 -65 0
107 -14 -65 67 0
107 -14 65 -67 0
107 -14 -67 68 0
107 -14 67 -68 0
107 -14 -68 70 0
107 -14 68 -70 0
107 -14 -70 72 0
107 -14 70 -72 0
107 -14 -72 73 0
107 -14 72 -73 0
107 -14 -73 74 0
107 -14 73 -74 0
107 -14 -74 76 0
107 -14 74 -76 0
107 -14 -76 79 0
107 -14 76 -79 0
107 -14 -79 81 0
107 -14 79 -81 0
107 -14 -81 83 0
107 -14 81 -83 0
107 -14 -83 89 0
107 -14 83 -89 0
107 -14 -89 94 0
107 -14 89 -94 0
107 -14 -94 95 0
107 -14 94 -95 0
107 -14 -95 96 0
107 -14 95 -96 0
107 -14 -96 97 0
107 -14 96 -97 0
107 -14 -97 100 0
107 -14 97 -100 0
107 -14 -100 101 0
107 -14 100 -101 0
107 -14 -101 103 0
107 -14 101 -103 0
107 -14 -103 104 0
107 -14 103 -104 0
107 -14 -104 106 0
107 -14 104 -106 0
107 -14 -106 107 0
107 -14 106 -107 0
107 -14 -107 112 0
107 -14 107 -112 0
107 -14 -112 114 0
107 -14 112 -114 0
107 -14 -114 120 0
107 -14 114 -120 0
107 -14 -120 122 0
107 -14 120 -122 0
107 -14 -122 127 0
107 -14 122 -127 0
107 -14 -127 128 0
107 -14 127 -128 0
107 -14 -128 129 0
107 -14 128 -129 0
107 -14 -129 132 0
107 -14 129 -132 0
107 -14 -132 133 0
107 -14 132 -133 0
107 -14 -133 135 0
107 -14 133 -135 0
107 -14 -135 142 0
107 -14 135 -142 0
107 -14 -142 144 0
107 -14 142 -144 0
107 -14 -144 146 0
107 -14 144 -146 0
107 -14 -146 157 0
107 -14 146 -157 0
107 -14 -157 158 0
107 -14 157 -158 0
107 -14 -59 69 0
107 -14 59 -69 0
107 -14 -69 77 0
107 -14 69 -77 0
107 -14 -77 78 0
107 -14 77 -78 0
107 -14 -78 80 0
107 -14 78 -80 0
107 -14 -80 84 0
107 -14 80 -84 0
107 -14 -84 85 0
107 -14 84 -85 0
107 -14 -85 87 0
107 -14 85 -87 0
107 -14 -87 90 0
107 -14 87 -90 0
107 -14 -90 91 0
107 -14 90 -91 0
107 -14 -91 92 0
107 -14 91 -92 0
107 -14 -92 93 0
107 -14 92 -93 0
107 -14 -93 98 0
107 -14 93 -98 0
107 -14 -98 110 0
107 -14 98 -110 0
107 -14 -110 111 0
107 -14 110 -111 0
107 -14 -111 116 0
107 -14 111 -116 0
107 -14 -116 118 0
107 -14 116 -118 0
107 -14 -118 126 0
107 -14 118 -126 0
107 -14 -126 130 0
107 -14 126 -130 0
107 -14 -130 149 0
107 -14 130 -149 0
107 -14 -149 156 0
107 -14 149 -156 0
107 -14 -156 160 0
107 -14 156 -160 0
107 -14 -160 162 0
107 -14 160 -162 0
107 -14 -66 88 0
107 -14 66 -88 0
107 -14 -88 99 0
107 -14 88 -99 0
107 -14 -99 102 0
107 -14 99 -102 0
107 -14 -102 105 0
107 -14 102 -105 0
107 -14 -105 119 0
107 -14 105 -119 0
107 -14 -119 123 0
107 -14 119 -123 0
107 -14 -123 124 0
107 -14 123 -124 0
107 -14 -124 137 0
107 -14 124 -137 0
107 -14 -137 138 0
107 -14 137 -138 0
107 -14 -138 139 0
107 -14 138 -139 0
107 -14 -139 141 0
107 -14 139 -141 0
107 -14 -141 145 0
107 -14 141 -145 0
107 -14 -145 147 0
107 -14 145 -147 0
107 -14 -147 150 0
107 -14 147 -150 0
107 -14 -150 151 0
107 -14 150 -151 0
107 -14 -151 153 0
107 -14 151 -153 0
107 -14 -153 154 0
107 -14 153 -154 0
107 -14 -154 155 0
107 -14 154 -155 0
107 -14 -155 159 0
107 -14 155 -159 0
107 -14 -159 163 0
107 -14 159 -163 0
107 -15 -103 111 0
107 -15 103 -111 0
107 -15 -111 112 0
107 -15 111 -112 0
107 -15 -112 116 0
107 -15 112 -116 0
107 -15 -116 117 0
107 -15 116 -117 0
107 -15 -117 121 0
107 -15 117 -121 0
107 -15 -121 123 0
107 -15 121 -123 0
107 -15 -123 124 0
107 -15 123 -124 0
107 -15 -124 126 0
107 -15 124 -126 0
107 -15 -126 127 0
107 -15 126 -127 0
107 -15 -127 129 0
107 -15 127 -129 0
107 -15 -129 130 0
107 -15 129 -130 0
107 -15 -130 131 0
107 -15 130 -131 0
107 -15 -131 135 0
107 -15 131 -135 0
107 -15 -135 136 0
107 -15 135 -136 0
107 -15 -136 138 0
107 -15 136 -138 0
107 -15 -138 143 0
107 -15 138 -143 0
107 -15 -143 149 0
107 -15 143 -149 0
107 -15 -149 154 0
107 -15 149 -154 0
107 -15 -154 157 0
107 -15 154 -157 0
107 -15 -157 159 0
107 -15 157 -159 0
107 -15 -159 160 0
107 -15 159 -160 0
107 -15 -160 163 0
107 -15 160 -163 0
107 -15 -100 109 0
107 -15 100 -109 0
107 -15 -109 113 0
107 -15 109 -113 0
107 -15 -113 114 0
107 -15 113 -114 0
107 -15 -114 115 0
107 -15 114 -115 0
107 -15 -115 120 0
107 -15 115 -120 0
107 -15 -120 134 0
107 -15 120 -134 0
107 -15 -134 139 0
107 -15 134 -139 0
107 -15 -139 140 0
107 -15 139 -140 0
107 -15 -140 144 0
107 -15 140 -144 0
107 -15 -144 153 0
107 -15 144 -153 0
107 -15 -153 158 0
107 -15 153 -158 0
107 -15 -158 162 0
107 -15 158 -162 0
107 -15 -60 66 0
107 -15 60 -66 0
107 -15 -66 78 0
107 -15 66 -78 0
107 -15 -78 81 0
107 -15 78 -81 0
107 -15 -81 90 0
107 -15 81 -90 0
107 -15 -90 101 0
107 -15 90 -101 0
107 -15 -101 110 0
107 -15 101 -110 0
107 -15 -110 119 0
107 -15 110 -119 0
107 -15 -119 128 0
107 -15 119 -128 0
107 -15 -128 141 0
107 -15 128 -141 0
107 -15 -141 142 0
107 -15 141 -142 0
107 -15 -142 146 0
107 -15 142 -146 0
107 -15 -146 147 0
107 -15 146 -147 0
107 -15 -147 150 0
107 -15 147 -150 0
107 -15 -150 151 0
107 -15 150 -151 0
107 -15 -151 161 0
107 -15 151 -161 0
107 -15 -58 59 0
107 -15 58 -59 0
107 -15 -59 61 0
107 -15 59 -61 0
107 -15 -61 62 0
107 -15 61 -62 0
107 -15 -62 63 0
107 -15 62 -63 0
107 -15 -63 64 0
107 -15 63 -64 0
107 -15 -64 65 0
107 -15 64 -65 0
107 -15 -65 67 0
107 -15 65 -67 0
107 -15 -67 68 0
107 -15 67 -68 0
107 -15 -68 69 0
107 -15 68 -69 0
107 -15 -69 70 0
107 -15 69 -70 0
107 -15 -70 71 0
107 -15 70 -71 0
107 -15 -71 72 0
107 -15 71 -72 0
107 -15 -72 73 0
107 -15 72 -73 0
107 -15 -73 74 0
107 -15 73 -74 0
107 -15 -74 75 0
107 -15 74 -75 0
107 -15 -75 76 0
107 -15 75 -76 0
107 -15 -76 77 0
107 -15 76 -77 0
107 -15 -77 79 0
107 -15 77 -79 0
107 -15 -79 80 0
107 -15 79 -80 0
107 -15 -80 82 0
107 -15 80 -82 0
107 -15 -82 83 0
107 -15 82 -83 0
107 -15 -83 84 0
107 -15 83 -84 0
107 -15 -84 85 0
107 -15 84 -85 0
107 -15 -85 86 0
107 -15 85 -86 0
107 -15 -86 87 0
107 -15 86 -87 0
107 -15 -87 88 0
107 -15 87 -88 0
107 -15 -88 89 0
107 -15 88 -89 0
107 -15 -89 91 0
107 -15 89 -91 0
107 -15 -91 92 0
107 -15 91 -92 0
107 -15 -92 93 0
107 -15 92 -93 0
107 -15 -93 94 0
107 -15 93 -94 0
107 -15 -94 95 0
107 -15 94 -95 0
107 -15 -95 96 0
107 -15 95 -96 0
107 -15 -96 97 0
107 -15 96 -97 0
107 -15 -97 98 0
107 -15 97 -98 0
107 -15 -98 99 0
107 -15 98 -99 0
107 -15 -99 102 0
107 -15 99 -102 0
107 -15 -102 104 0
107 -15 102 -104 0
107 -15 -104 105 0
107 -15 104 -105 0
107 -15 -105 106 0
107 -15 105 -106 0
107 -15 -106 107 0
107 -15 106 -107 0
107 -15 -107 108 0
107 -15 107 -108 0
107 -15 -108 118 0
107 -15 108 -118 0
107 -15 -118 122 0
107 -15 118 -122 0
107 -15 -122 125 0
107 -15 122 -125 0
107 -15 -125 132 0
107 -15 125 -132 0
107 -15 -132 133 0
107 -15 132 -133 0
107 -15 -133 137 0
107 -15 133 -137 0
107 -15 -137 145 0
107 -15 137 -145 0
107 -15 -145 148 0
107 -15 145 -148 0
107 -15 -148 152 0
107 -15 148 -152 0
107 -15 -152 155 0
107 -15 152 -155 0
107 -15 -155 156 0
107 -15 155 -156 0
107 -16 -75 95 0
107 -16 75 -95 0
107 -16 -95 98 0
107 -16 95 -98 0
107 -16 -98 114 0
107 -16 98 -114 0
107 -16 -114 116 0
107 -16 114 -116 0
107 -16 -116 118 0
107 -16 116 -118 0
107 -16 -118 127 0
107 -16 118 -127 0
107 -16 -127 133 0
107 -16 127 -133 0
107 -16 -133 134 0
107 -16 133 -134 0
107 -16 -134 135 0
107 -16 134 -135 0
107 -16 -135 141 0
107 -16 135 -141 0
107 -16 -141 144 0
107 -16 141 -144 0
107 -16 -144 152 0
107 -16 144 -152 0
107 -16 -152 157 0
107 -16 152 -157 0
107 -16 -157 159 0
107 -16 157 -159 0
107 -16 -159 161 0
107 -16 159 -161 0
107 -16 -161 163 0
107 -16 161 -163 0
107 -16 -61 66 0
107 -16 61 -66 0
107 -16 -66 78 0
107 -16 66 -78 0
107 -16 -78 84 0
107 -16 78 -84 0
107 -16 -84 102 0
107 -16 84 -102 0
107 -16 -102 111 0
107 -16 102 -111 0
107 -16 -111 115 0
107 -16 111 -115 0
107 -16 -115 117 0
107 -16 115 -117 0
107 -16 -117 119 0
107 -16 117 -119 0
107 -16 -119 123 0
107 -16 119 -123 0
107 -16 -123 126 0
107 -16 123 -126 0
107 -16 -126 128 0
107 -16 126 -128 0
107 -16 -128 130 0
107 -16 128 -130 0
107 -16 -130 131 0
107 -16 130 -131 0
107 -16 -131 136 0
107 -16 131 -136 0
107 -16 -136 137 0
107 -16 136 -137 0
107 -16 -137 138 0
107 -16 137 -138 0
107 -16 -138 139 0
107 -16 138 -139 0
107 -16 -139 146 0
107 -16 139 -146 0
107 -16 -146 147 0
107 -16 146 -147 0
107 -16 -147 149 0
107 -16 147 -149 0
107 -16 -149 151 0
107 -16 149 -151 0
107 -16 -151 156 0
107 -16 151 -156 0
107 -16 -156 162 0
107 -16 156 -162 0
107 -16 -63 77 0
107 -16 63 -77 0
107 -16 -77 112 0
107 -16 77 -112 0
107 -16 -112 113 0
107 -16 112 -113 0
107 -16 -113 129 0
107 -16 113 -129 0
107 -16 -129 132 0
107 -16 129 -132 0
107 -16 -132 143 0
107 -16 132 -143 0
107 -16 -143 148 0
107 -16 143 -148 0
107 -16 -148 150 0
107 -16 148 -150 0
107 -16 -150 154 0
107 -16 150 -154 0
107 -16 -154 155 0
107 -16 154 -155 0
107 -16 -58 59 0
107 -16 58 -59 0
107 -16 -59 60 0
107 -16 59 -60 0
107 -16 -60 62 0
107 -16 60 -62 0
107 -16 -62 64 0
107 -16 62 -64 0
107 -16 -64 65 0
107 -16 64 -65 0
107 -16 -65 67 0
107 -16 65 -67 0
107 -16 -67 68 0
107 -16 67 -68 0
107 -16 -68 69 0
107 -16 68 -69 0
107 -16 -69 70 0
107 -16 69 -70 0
107 -16 -70 71 0
107 -16 70 -71 0
107 -16 -71 72 0
107 -16 71 -72 0
107 -16 -72 73 0
107 -16 72 -73 0
107 -16 -73 74 0
107 -16 73 -74 0
107 -16 -74 76 0
107 -16 74 -76 0
107 -16 -76 79 0
107 -16 76 -79 0
107 -16 -79 80 0
107 -16 79 -80 0
107 -16 -80 81 0
107 -16 80 -81 0
107 -16 -81 82 0
107 -16 81 -82 0
107 -16 -82 83 0
107 -16 82 -83 0
107 -16 -83 85 0
107 -16 83 -85 0
107 -16 -85 86 0
107 -16 85 -86 0
107 -16 -86 87 0
107 -16 86 -87 0
107 -16 -87 88 0
107 -16 87 -88 0
107 -16 -88 89 0
107 -16 88 -89 0
107 -16 -89 90 0
107 -16 89 -90 0
107 -16 -90 91 0
107 -16 90 -91 0
107 -16 -91 92 0
107 -16 91 -92 0
107 -16 -92 93 0
107 -16 92 -93 0
107 -16 -93 94 0
107 -16 93 -94 0
107 -16 -94 96 0
107 -16 94 -96 0
107 -16 -96 97 0
107 -16 96 -97 0
107 -16 -97 99 0
107 -16 97 -99 0
107 -16 -99 100 0
107 -16 99 -100 0
107 -16 -100 101 0
107 -16 100 -101 0
107 -16 -101 103 0
107 -16 101 -103 0
107 -16 -103 104 0
107 -16 103 -104 0
107 -16 -104 105 0
107 -16 104 -105 0
107 -16 -105 106 0
107 -16 105 -106 0
107 -16 -106 107 0
107 -16 106 -107 0
107 -16 -107 108 0
107 -16 107 -108 0
107 -16 -108 109 0
107 -16 108 -109 0
107 -16 -109 110 0
107 -16 109 -110 0
107 -16 -110 120 0
107 -16 110 -120 0
107 -16 -120 121 0
107 -16 120 -121 0
107 -16 -121 122 0
107 -16 121 -122 0
107 -16 -122 124 0
107 -16 122 -124 0
107 -16 -124 125 0
107 -16 124 -125 0
107 -16 -125 140 0
107 -16 125 -140 0
107 -16 -140 142 0
107 -16 140 -142 0
107 -16 -142 145 0
107 -16 142 -145 0
107 -16 -145 153 0
107 -16 145 -153 0
107 -16 -153 158 0
107 -16 153 -158 0
107 -16 -158 160 0
107 -16 158 -160 0
107 -17 -112 117 0
107 -17 112 -117 0
107 -17 -117 121 0
107 -17 117 -121 0
107 -17 -121 125 0
107 -17 121 -125 0
107 -17 -125 132 0
107 -17 125 -132 0
107 -17 -132 134 0
107 -17 132 -134 0
107 -17 -134 137 0
107 -17 134 -137 0
107 -17 -137 139 0
107 -17 137 -139 0
107 -17 -139 141 0
107 -17 139 -141 0
107 -17 -141 144 0
107 -17 141 -144 0
107 -17 -144 147 0
107 -17 144 -147 0
107 -17 -147 150 0
107 -17 147 -150 0
107 -17 -150 154 0
107 -17 150 -154 0
107 -17 -154 156 0
107 -17 154 -156 0
107 -17 -156 159 0
107 -17 156 -159 0
107 -17 -86 87 0
107 -17 86 -87 0
107 -17 -87 95 0
107 -17 87 -95 0
107 -17 -95 108 0
107 -17 95 -108 0
107 -17 -108 116 0
107 -17 108 -116 0
107 -17 -116 120 0
107 -17 116 -120 0
107 -17 -120 126 0
107 -17 120 -126 0
107 -17 -126 128 0
107 -17 126 -128 0
107 -17 -128 129 0
107 -17 128 -129 0
107 -17 -129 133 0
107 -17 129 -133 0
107 -17 -133 136 0
107 -17 133 -136 0
107 -17 -136 143 0
107 -17 136 -143 0
107 -17 -143 145 0
107 -17 143 -145 0
107 -17 -145 158 0
107 -17 145 -158 0
107 -17 -58 59 0
107 -17 58 -59 0
107 -17 -59 60 0
107 -17 59 -60 0
107 -17 -60 61 0
107 -17 60 -61 0
107 -17 -61 62 0
107 -17 61 -62 0
107 -17 -62 63 0
107 -17 62 -63 0
107 -17 -63 65 0
107 -17 63 -65 0
107 -17 -65 66 0
107 -17 65 -66 0
107 -17 -66 67 0
107 -17 66 -67 0
107 -17 -67 68 0
107 -17 67 -68 0
107 -17 -68 69 0
107 -17 68 -69 0
107 -17 -69 70 0
107 -17 69 -70 0
107 -17 -70 71 0
107 -17 70 -71 0
107 -17 -71 72 0
107 -17 71 -72 0
107 -17 -72 73 0
107 -17 72 -73 0
107 -17 -73 74 0
107 -17 73 -74 0
107 -17 -74 75 0
107 -17 74 -75 0
107 -17 -75 77 0
107 -17 75 -77 0
107 -17 -77 78 0
107 -17 77 -78 0
107 -17 -78 79 0
107 -17 78 -79 0
107 -17 -79 80 0
107 -17 79 -80 0
107 -17 -80 81 0
107 -17 80 -81 0
107 -17 -81 82 0
107 -17 81 -82 0
107 -17 -82 83 0
107 -17 82 -83 0
107 -17 -83 84 0
107 -17 83 -84 0
107 -17 -84 85 0
107 -17 84 -85 0
107 -17 -85 88 0
107 -17 85 -88 0
107 -17 -88 90 0
107 -17 88 -90 0
107 -17 -90 91 0
107 -17 90 -91 0
107 -17 -91 92 0
107 -17 91 -92 0
107 -17 -92 93 0
107 -17 92 -93 0
107 -17 -93 94 0
107 -17 93 -94 0
107 -17 -94 96 0
107 -17 94 -96 0
107 -17 -96 100 0
107 -17 96 -100 0
107 -17 -100 101 0
107 -17 100 -101 0
107 -17 -101 102 0
107 -17 101 -102 0
107 -17 -102 103 0
107 -17 102 -103 0
107 -17 -103 104 0
107 -17 103 -104 0
107 -17 -104 105 0
107 -17 104 -105 0
107 -17 -105 106 0
107 -17 105 -106 0
107 -17 -106 109 0
107 -17 106 -109 0
107 -17 -109 110 0
107 -17 109 -110 0
107 -17 -110 113 0
107 -17 110 -113 0
107 -17 -113 114 0
107 -17 113 -114 0
107 -17 -114 122 0
107 -17 114 -122 0
107 -17 -122 123 0
107 -17 122 -123 0
107 -17 -123 127 0
107 -17 123 -127 0
107 -17 -127 135 0
107 -17 127 -135 0
107 -17 -135 138 0
107 -17 135 -138 0
107 -17 -138 151 0
107 -17 138 -151 0
107 -17 -151 152 0
107 -17 151 -152 0
107 -17 -152 157 0
107 -17 152 -157 0
107 -17 -157 163 0
107 -17 157 -163 0
107 -17 -64 76 0
107 -17 64 -76 0
107 -17 -76 89 0
107 -17 76 -89 0
107 -17 -89 97 0
107 -17 89 -97 0
107 -17 -97 98 0
107 -17 97 -98 0
107 -17 -98 99 0
107 -17 98 -99 0
107 -17 -99 107 0
107 -17 99 -107 0
107 -17 -107 111 0
107 -17 107 -111 0
107 -17 -111 115 0
107 -17 111 -115 0
107 -17 -115 118 0
107 -17 115 -118 0
107 -17 -118 119 0
107 -17 118 -119 0
107 -17 -119 124 0
107 -17 119 -124 0
107 -17 -124 130 0
107 -17 124 -130 0
107 -17 -130 131 0
107 -17 130 -131 0
107 -17 -131 140 0
107 -17 131 -140 0
107 -17 -140 142 0
107 -17 140 -142 0
107 -17 -142 146 0
107 -17 142 -146 0
107 -17 -146 148 0
107 -17 146 -148 0
107 -17 -148 149 0
107 -17 148 -149 0
107 -17 -149 153 0
107 -17 149 -153 0
107 -17 -153 155 0
107 -17 153 -155 0
107 -17 -155 160 0
107 -17 155 -160 0
107 -17 -160 161 0
107 -17 160 -161 0
107 -17 -161 162 0
107 -17 161 -162 0
107 -18 -61 62 0
107 -18 61 -62 0
107 -18 -62 63 0
107 -18 62 -63 0
107 -18 -63 64 0
107 -18 63 -64 0
107 -18 -64 65 0
107 -18 64 -65 0
107 -18 -65 66 0
107 -18 65 -66 0
107 -18 -66 68 0
107 -18 66 -68 0
107 -18 -68 69 0
107 -18 68 -69 0
107 -18 -69 73 0
107 -18 69 -73 0
107 -18 -73 75 0
107 -18 73 -75 0
107 -18 -75 76 0
107 -18 75 -76 0
107 -18 -76 77 0
107 -18 76 -77 0
107 -18 -77 80 0
107 -18 77 -80 0
107 -18 -80 81 0
107 -18 80 -81 0
107 -18 -81 82 0
107 -18 81 -82 0
107 -18 -82 84 0
107 -18 82 -84 0
107 -18 -84 88 0
107 -18 84 -88 0
107 -18 -88 90 0
107 -18 88 -90 0
107 -18 -90 93 0
107 -18 90 -93 0
107 -18 -93 94 0
107 -18 93 -94 0
107 -18 -94 97 0
107 -18 94 -97 0
107 -18 -97 98 0
107 -18 97 -98 0
107 -18 -98 99 0
107 -18 98 -99 0
107 -18 -99 100 0
107 -18 99 -100 0
107 -18 -100 102 0
107 -18 100 -102 0
107 -18 -102 107 0
107 -18 102 -107 0
107 -18 -107 109 0
107 -18 107 -109 0
107 -18 -109 110 0
107 -18 109 -110 0
107 -18 -110 122 0
107 -18 110 -122 0
107 -18 -122 125 0
107 -18 122 -125 0
107 -18 -125 128 0
107 -18 125 -128 0
107 -18 -128 130 0
107 -18 128 -130 0
107 -18 -130 131 0
107 -18 130 -131 0
107 -18 -131 137 0
107 -18 131 -137 0
107 -18 -137 138 0
107 -18 137 -138 0
107 -18 -138 143 0
107 -18 138 -143 0
107 -18 -143 146 0
107 -18 143 -146 0
107 -18 -146 156 0
107 -18 146 -156 0
107 -18 -156 157 0
107 -18 156 -157 0
107 -18 -157 160 0
107 -18 157 -160 0
107 -18 -58 60 0
107 -18 58 -60 0
107 -18 -60 71 0
107 -18 60 -71 0
107 -18 -71 78 0
107 -18 71 -78 0
107 -18 -78 79 0
107 -18 78 -79 0
107 -18 -79 86 0
107 -18 79 -86 0
107 -18 -86 87 0
107 -18 86 -87 0
107 -18 -87 89 0
107 -18 87 -89 0
107 -18 -89 92 0
107 -18 89 -92 0
107 -18 -92 95 0
107 -18 92 -95 0
107 -18 -95 96 0
107 -18 95 -96 0
107 -18 -96 104 0
107 -18 96 -104 0
107 -18 -104 105 0
107 -18 104 -105 0
107 -18 -105 112 0
107 -18 105 -112 0
107 -18 -112 114 0
107 -18 112 -114 0
107 -18 -114 115 0
107 -18 114 -115 0
107 -18 -115 124 0
107 -18 115 -124 0
107 -18 -124 129 0
107 -18 124 -129 0
107 -18 -129 134 0
107 -18 129 -134 0
107 -18 -134 139 0
107 -18 134 -139 0
107 -18 -139 140 0
107 -18 139 -140 0
107 -18 -140 141 0
107 -18 140 -141 0
107 -18 -141 142 0
107 -18 141 -142 0
107 -18 -142 145 0
107 -18 142 -145 0
107 -18 -145 149 0
107 -18 145 -149 0
107 -18 -149 152 0
107 -18 149 -152 0
107 -18 -152 153 0
107 -18 152 -153 0
107 -18 -153 159 0
107 -18 153 -159 0
107 -18 -159 162 0
107 -18 159 -162 0
107 -18 -85 111 0
107 -18 85 -111 0
107 -18 -111 113 0
107 -18 111 -113 0
107 -18 -113 118 0
107 -18 113 -118 0
107 -18 -118 120 0
107 -18 118 -120 0
107 -18 -120 123 0
107 -18 120 -123 0
107 -18 -123 126 0
107 -18 123 -126 0
107 -18 -126 127 0
107 -18 126 -127 0
107 -18 -127 133 0
107 -18 127 -133 0
107 -18 -133 135 0
107 -18 133 -135 0
107 -18 -135 136 0
107 -18 135 -136 0
107 -18 -136 144 0
107 -18 136 -144 0
107 -18 -144 147 0
107 -18 144 -147 0
107 -18 -147 150 0
107 -18 147 -150 0
107 -18 -150 151 0
107 -18 150 -151 0
107 -18 -151 154 0
107 -18 151 -154 0
107 -18 -154 158 0
107 -18 154 -158 0
107 -18 -158 161 0
107 -18 158 -161 0
107 -18 -161 163 0
107 -18 161 -163 0
107 -18 -59 67 0
107 -18 59 -67 0
107 -18 -67 70 0
107 -18 67 -70 0
107 -18 -70 72 0
107 -18 70 -72 0
107 -18 -72 74 0
107 -18 72 -74 0
107 -18 -74 83 0
107 -18 74 -83 0
107 -18 -83 91 0
107 -18 83 -91 0
107 -18 -91 101 0
107 -18 91 -101 0
107 -18 -101 103 0
107 -18 101 -103 0
107 -18 -103 106 0
107 -18 103 -106 0
107 -18 -106 108 0
107 -18 106 -108 0
107 -18 -108 116 0
107 -18 108 -116 0
107 -18 -116 117 0
107 -18 116 -117 0
107 -18 -117 119 0
107 -18 117 -119 0
107 -18 -119 121 0
107 -18 119 -121 0
107 -18 -121 132 0
107 -18 121 -132 0
107 -18 -132 148 0
107 -18 132 -148 0
107 -18 -148 155 0
107 -18 148 -155 0
107 -19 -60 61 0
107 -19 60 -61 0
107 -19 -61 63 0
107 -19 61 -63 0
107 -19 -63 64 0
107 -19 63 -64 0
107 -19 -64 78 0
107 -19 64 -78 0
107 -19 -78 79 0
107 -19 78 -79 0
107 -19 -79 83 0
107 -19 79 -83 0
107 -19 -83 87 0
107 -19 83 -87 0
107 -19 -87 92 0
107 -19 87 -92 0
107 -19 -92 96 0
107 -19 92 -96 0
107 -19 -96 102 0
107 -19 96 -102 0
107 -19 -102 106 0
107 -19 102 -106 0
107 -19 -106 114 0
107 -19 106 -114 0
107 -19 -114 118 0
107 -19 114 -118 0
107 -19 -118 132 0
107 -19 118 -132 0
107 -19 -132 133 0
107 -19 132 -133 0
107 -19 -133 136 0
107 -19 133 -136 0
107 -19 -136 142 0
107 -19 136 -142 0
107 -19 -142 144 0
107 -19 142 -144 0
107 -19 -144 145 0
107 -19 144 -145 0
107 -19 -145 148 0
107 -19 145 -148 0
107 -19 -148 149 0
107 -19 148 -149 0
107 -19 -149 154 0
107 -19 149 -154 0
107 -19 -154 157 0
107 -19 154 -157 0
107 -19 -157 158 0
107 -19 157 -158 0
107 -19 -158 160 0
107 -19 158 -160 0
107 -19 -160 163 0
107 -19 160 -163 0
107 -19 -59 62 0
107 -19 59 -62 0
107 -19 -62 66 0
107 -19 62 -66 0
107 -19 -66 67 0
107 -19 66 -67 0
107 -19 -67 68 0
107 -19 67 -68 0
107 -19 -68 69 0
107 -19 68 -69 0
107 -19 -69 72 0
107 -19 69 -72 0
107 -19 -72 73 0
107 -19 72 -73 0
107 -19 -73 74 0
107 -19 73 -74 0
107 -19 -74 75 0
107 -19 74 -75 0
107 -19 -75 76 0
107 -19 75 -76 0
107 -19 -76 77 0
107 -19 76 -77 0
107 -19 -77 80 0
107 -19 77 -80 0
107 -19 -80 81 0
107 -19 80 -81 0
107 -19 -81 82 0
107 -19 81 -82 0
107 -19 -82 84 0
107 -19 82 -84 0
107 -19 -84 85 0
107 -19 84 -85 0
107 -19 -85 90 0
107 -19 85 -90 0
107 -19 -90 91 0
107 -19 90 -91 0
107 -19 -91 93 0
107 -19 91 -93 0
107 -19 -93 94 0
107 -19 93 -94 0
107 -19 -94 95 0
107 -19 94 -95 0
107 -19 -95 97 0
107 -19 95 -97 0
107 -19 -97 98 0
107 -19 97 -98 0
107 -19 -98 99 0
107 -19 98 -99 0
107 -19 -99 100 0
107 -19 99 -100 0
107 -19 -100 103 0
107 -19 100 -103 0
107 -19 -103 105 0
107 -19 103 -105 0
107 -19 -105 107 0
107 -19 105 -107 0
107 -19 -107 108 0
107 -19 107 -108 0
107 -19 -108 111 0
107 -19 108 -111 0
107 -19 -111 112 0
107 -19 111 -112 0
107 -19 -112 115 0
107 -19 112 -115 0
107 -19 -115 122 0
107 -19 115 -122 0
107 -19 -122 123 0
107 -19 122 -123 0
107 -19 -123 125 0
107 -19 123 -125 0
107 -19 -125 126 0
107 -19 125 -126 0
107 -19 -126 128 0
107 -19 126 -128 0
107 -19 -128 130 0
107 -19 128 -130 0
107 -19 -130 140 0
107 -19 130 -140 0
107 -19 -140 141 0
107 -19 140 -141 0
107 -19 -141 147 0
107 -19 141 -147 0
107 -19 -147 152 0
107 -19 147 -152 0
107 -19 -152 161 0
107 -19 152 -161 0
107 -19 -58 70 0
107 -19 58 -70 0
107 -19 -70 71 0
107 -19 70 -71 0
107 -19 -71 88 0
107 -19 71 -88 0
107 -19 -88 121 0
107 -19 88 -121 0
107 -19 -121 124 0
107 -19 121 -124 0
107 -19 -124 137 0
107 -19 124 -137 0
107 -19 -137 139 0
107 -19 137 -139 0
107 -19 -139 146 0
107 -19 139 -146 0
107 -19 -146 153 0
107 -19 146 -153 0
107 -19 -153 155 0
107 -19 153 -155 0
107 -19 -155 159 0
107 -19 155 -159 0
107 -19 -65 86 0
107 -19 65 -86 0
107 -19 -86 89 0
107 -19 86 -89 0
107 -19 -89 101 0
107 -19 89 -101 0
107 -19 -101 104 0
107 -19 101 -104 0
107 -19 -104 109 0
107 -19 104 -109 0
107 -19 -109 110 0
107 -19 109 -110 0
107 -19 -110 113 0
107 -19 110 -113 0
107 -19 -113 116 0
107 -19 113 -116 0
107 -19 -116 117 0
107 -19 116 -117 0
107 -19 -117 119 0
107 -19 117 -119 0
107 -19 -119 120 0
107 -19 119 -120 0
107 -19 -120 127 0
107 -19 120 -127 0
107 -19 -127 129 0
107 -19 127 -129 0
107 -19 -129 131 0
107 -19 129 -131 0
107 -19 -131 134 0
107 -19 131 -134 0
107 -19 -134 135 0
107 -19 134 -135 0
107 -19 -135 138 0
107 -19 135 -138 0
107 -19 -138 143 0
107 -19 138 -143 0
107 -19 -143 150 0
107 -19 143 -150 0
107 -19 -150 151 0
107 -19 150 -151 0
107 -19 -151 156 0
107 -19 151 -156 0
107 -19 -156 162 0
107 -19 156 -162 0
107 -20 -59 63 0
107 -20 59 -63 0
107 -20 -63 65 0
107 -20 63 -65 0
107 -20 -65 66 0
107 -20 65 -66 0
107 -20 -66 67 0
107 -20 66 -67 0
107 -20 -67 72 0
107 -20 67 -72 0
107 -20 -72 75 0
107 -20 72 -75 0
107 -20 -75 76 0
107 -20 75 -76 0
107 -20 -76 78 0
107 -20 76 -78 0
107 -20 -78 80 0
107 -20 78 -80 0
107 -20 -80 81 0
107 -20 80 -81 0
107 -20 -81 83 0
107 -20 81 -83 0
107 -20 -83 85 0
107 -20 83 -85 0
107 -20 -85 87 0
107 -20 85 -87 0
107 -20 -87 90 0
107 -20 87 -90 0
107 -20 -90 91 0
107 -20 90 -91 0
107 -20 -91 94 0
107 -20 91 -94 0
107 -20 -94 95 0
107 -20 94 -95 0
107 -20 -95 96 0
107 -20 95 -96 0
107 -20 -96 103 0
107 -20 96 -103 0
107 -20 -103 107 0
107 -20 103 -107 0
107 -20 -107 108 0
107 -20 107 -108 0
107 -20 -108 131 0
107 -20 108 -131 0
107 -20 -131 138 0
107 -20 131 -138 0
107 -20 -138 142 0
107 -20 138 -142 0
107 -20 -142 144 0
107 -20 142 -144 0
107 -20 -144 148 0
107 -20 144 -148 0
107 -20 -148 149 0
107 -20 148 -149 0
107 -20 -149 150 0
107 -20 149 -150 0
107 -20 -150 155 0
107 -20 150 -155 0
107 -20 -155 162 0
107 -20 155 -162 0
107 -20 -70 99 0
107 -20 70 -99 0
107 -20 -99 102 0
107 -20 99 -102 0
107 -20 -102 106 0
107 -20 102 -106 0
107 -20 -106 109 0
107 -20 106 -109 0
107 -20 -109 111 0
107 -20 109 -111 0
107 -20 -111 113 0
107 -20 111 -113 0
107 -20 -113 118 0
107 -20 113 -118 0
107 -20 -118 119 0
107 -20 118 -119 0
107 -20 -119 120 0
107 -20 119 -120 0
107 -20 -120 121 0
107 -20 120 -121 0
107 -20 -121 122 0
107 -20 121 -122 0
107 -20 -122 125 0
107 -20 122 -125 0
107 -20 -125 127 0
107 -20 125 -127 0
107 -20 -127 128 0
107 -20 127 -128 0
107 -20 -128 129 0
107 -20 128 -129 0
107 -20 -129 132 0
107 -20 129 -132 0
107 -20 -132 136 0
107 -20 132 -136 0
107 -20 -136 139 0
107 -20 136 -139 0
107 -20 -139 145 0
107 -20 139 -145 0
107 -20 -145 156 0
107 -20 145 -156 0
107 -20 -156 158 0
107 -20 156 -158 0
107 -20 -158 160 0
107 -20 158 -160 0
107 -20 -160 161 0
107 -20 160 -161 0
107 -20 -61 62 0
107 -20 61 -62 0
107 -20 -62 64 0
107 -20 62 -64 0
107 -20 -64 71 0
107 -20 64 -71 0
107 -20 -71 84 0
107 -20 71 -84 0
107 -20 -84 86 0
107 -20 84 -86 0
107 -20 -86 89 0
107 -20 86 -89 0
107 -20 -89 93 0
107 -20 89 -93 0
107 -20 -93 97 0
107 -20 93 -97 0
107 -20 -97 100 0
107 -20 97 -100 0
107 -20 -100 110 0
107 -20 100 -110 0
107 -20 -110 112 0
107 -20 110 -112 0
107 -20 -112 115 0
107 -20 112 -115 0
107 -20 -115 116 0
107 -20 115 -116 0
107 -20 -116 117 0
107 -20 116 -117 0
107 -20 -117 123 0
107 -20 117 -123 0
107 -20 -123 130 0
107 -20 123 -130 0
107 -20 -130 137 0
107 -20 130 -137 0
107 -20 -137 140 0
107 -20 137 -140 0
107 -20 -140 143 0
107 -20 140 -143 0
107 -20 -143 146 0
107 -20 143 -146 0
107 -20 -146 147 0
107 -20 146 -147 0
107 -20 -147 151 0
107 -20 147 -151 0
107 -20 -151 154 0
107 -20 151 -154 0
107 -20 -154 157 0
107 -20 154 -157 0
107 -20 -157 159 0
107 -20 157 -159 0
107 -20 -159 163 0
107 -20 159 -163 0
107 -20 -58 60 0
107 -20 58 -60 0
107 -20 -60 68 0
107 -20 60 -68 0
107 -20 -68 69 0
107 -20 68 -69 0
107 -20 -69 73 0
107 -20 69 -73 0
107 -20 -73 74 0
107 -20 73 -74 0
107 -20 -74 77 0
107 -20 74 -77 0
107 -20 -77 79 0
107 -20 77 -79 0
107 -20 -79 82 0
107 -20 79 -82 0
107 -20 -82 88 0
107 -20 82 -88 0
107 -20 -88 92 0
107 -20 88 -92 0
107 -20 -92 98 0
107 -20 92 -98 0
107 -20 -98 101 0
107 -20 98 -101 0
107 -20 -101 104 0
107 -20 101 -104 0
107 -20 -104 105 0
107 -20 104 -105 0
107 -20 -105 114 0
107 -20 105 -114 0
107 -20 -114 124 0
107 -20 114 -124 0
107 -20 -124 126 0
107 -20 124 -126 0
107 -20 -126 133 0
107 -20 126 -133 0
107 -20 -133 134 0
107 -20 133 -134 0
107 -20 -134 135 0
107 -20 134 -135 0
107 -20 -135 141 0
107 -20 135 -141 0
107 -20 -141 152 0
107 -20 141 -152 0
107 -20 -152 153 0
107 -20 152 -153 0
107 -21 -62 70 0
107 -21 62 -70 0
107 -21 -70 75 0
107 -21 70 -75 0
107 -21 -75 78 0
107 -21 75 -78 0
107 -21 -78 80 0
107 -21 78 -80 0
107 -21 -80 83 0
107 -21 80 -83 0
107 -21 -83 84 0
107 -21 83 -84 0
107 -21 -84 87 0
107 -21 84 -87 0
107 -21 -87 89 0
107 -21 87 -89 0
107 -21 -89 90 0
107 -21 89 -90 0
107 -21 -90 96 0
107 -21 90 -96 0
107 -21 -96 102 0
107 -21 96 -102 0
107 -21 -102 108 0
107 -21 102 -108 0
107 -21 -108 110 0
107 -21 108 -110 0
107 -21 -110 116 0
107 -21 110 -116 0
107 -21 -116 117 0
107 -21 116 -117 0
107 -21 -117 123 0
107 -21 117 -123 0
107 -21 -123 127 0
107 -21 123 -127 0
107 -21 -127 130 0
107 -21 127 -130 0
107 -21 -130 136 0
107 -21 130 -136 0
107 -21 -136 143 0
107 -21 136 -143 0
107 -21 -143 146 0
107 -21 143 -146 0
107 -21 -146 147 0
107 -21 146 -147 0
107 -21 -147 153 0
107 -21 147 -153 0
107 -21 -153 156 0
107 -21 153 -156 0
107 -21 -156 157 0
107 -21 156 -157 0
107 -21 -157 158 0
107 -21 157 -158 0
107 -21 -158 162 0
107 -21 158 -162 0
107 -21 -59 64 0
107 -21 59 -64 0
107 -21 -64 65 0
107 -21 64 -65 0
107 -21 -65 68 0
107 -21 65 -68 0
107 -21 -68 69 0
107 -21 68 -69 0
107 -21 -69 71 0
107 -21 69 -71 0
107 -21 -71 73 0
107 -21 71 -73 0
107 -21 -73 93 0
107 -21 73 -93 0
107 -21 -93 94 0
107 -21 93 -94 0
107 -21 -94 100 0
107 -21 94 -100 0
107 -21 -100 103 0
107 -21 100 -103 0
107 -21 -103 107 0
107 -21 103 -107 0
107 -21 -107 109 0
107 -21 107 -109 0
107 -21 -109 112 0
107 -21 109 -112 0
107 -21 -112 118 0
107 -21 112 -118 0
107 -21 -118 120 0
107 -21 118 -120 0
107 -21 -120 124 0
107 -21 120 -124 0
107 -21 -124 141 0
107 -21 124 -141 0
107 -21 -141 142 0
107 -21 141 -142 0
107 -21 -142 152 0
107 -21 142 -152 0
107 -21 -152 154 0
107 -21 152 -154 0
107 -21 -154 160 0
107 -21 154 -160 0
107 -21 -63 66 0
107 -21 63 -66 0
107 -21 -66 67 0
107 -21 66 -67 0
107 -21 -67 72 0
107 -21 67 -72 0
107 -21 -72 76 0
107 -21 72 -76 0
107 -21 -76 91 0
107 -21 76 -91 0
107 -21 -91 92 0
107 -21 91 -92 0
107 -21 -92 111 0
107 -21 92 -111 0
107 -21 -111 115 0
107 -21 111 -115 0
107 -21 -115 125 0
107 -21 115 -125 0
107 -21 -125 128 0
107 -21 125 -128 0
107 -21 -128 129 0
107 -21 128 -129 0
107 -21 -129 132 0
107 -21 129 -132 0
107 -21 -132 133 0
107 -21 132 -133 0
107 -21 -133 134 0
107 -21 133 -134 0
107 -21 -134 135 0
107 -21 134 -135 0
107 -21 -135 139 0
107 -21 135 -139 0
107 -21 -139 140 0
107 -21 139 -140 0
107 -21 -140 144 0
107 -21 140 -144 0
107 -21 -144 145 0
107 -21 144 -145 0
107 -21 -145 159 0
107 -21 145 -159 0
107 -21 -159 163 0
107 -21 159 -163 0
107 -21 -58 60 0
107 -21 58 -60 0
107 -21 -60 61 0
107 -21 60 -61 0
107 -21 -61 74 0
107 -21 61 -74 0
107 -21 -74 77 0
107 -21 74 -77 0
107 -21 -77 79 0
107 -21 77 -79 0
107 -21 -79 81 0
107 -21 79 -81 0
107 -21 -81 82 0
107 -21 81 -82 0
107 -21 -82 85 0
107 -21 82 -85 0
107 -21 -85 86 0
107 -21 85 -86 0
107 -21 -86 88 0
107 -21 86 -88 0
107 -21 -88 95 0
107 -21 88 -95 0
107 -21 -95 97 0
107 -21 95 -97 0
107 -21 -97 98 0
107 -21 97 -98 0
107 -21 -98 99 0
107 -21 98 -99 0
107 -21 -99 101 0
107 -21 99 -101 0
107 -21 -101 104 0
107 -21 101 -104 0
107 -21 -104 105 0
107 -21 104 -105 0
107 -21 -105 106 0
107 -21 105 -106 0
107 -21 -106 113 0
107 -21 106 -113 0
107 -21 -113 114 0
107 -21 113 -114 0
107 -21 -114 119 0
107 -21 114 -119 0
107 -21 -119 121 0
107 -21 119 -121 0
107 -21 -121 122 0
107 -21 121 -122 0
107 -21 -122 126 0
107 -21 122 -126 0
107 -21 -126 131 0
107 -21 126 -131 0
107 -21 -131 137 0
107 -21 131 -137 0
107 -21 -137 138 0
107 -21 137 -138 0
107 -21 -138 148 0
107 -21 138 -148 0
107 -21 -148 149 0
107 -21 148 -149 0
107 -21 -149 150 0
107 -21 149 -150 0
107 -21 -150 151 0
107 -21 150 -151 0
107 -21 -151 155 0
107 -21 151 -155 0
107 -21 -155 161 0
107 -21 155 -161 0
107 -22 -60 62 0
107 -22 60 -62 0
107 -22 -62 63 0
107 -22 62 -63 0
107 -22 -63 70 0
107 -22 63 -70 0
107 -22 -70 75 0
107 -22 70 -75 0
107 -22 -75 78 0
107 -22 75 -78 0
107 -22 -78 79 0
107 -22 78 -79 0
107 -22 -79 82 0
107 -22 79 -82 0
107 -22 -82 85 0
107 -22 82 -85 0
107 -22 -85 87 0
107 -22 85 -87 0
107 -22 -87 89 0
107 -22 87 -89 0
107 -22 -89 92 0
107 -22 89 -92 0
107 -22 -92 95 0
107 -22 92 -95 0
107 -22 -95 98 0
107 -22 95 -98 0
107 -22 -98 103 0
107 -22 98 -103 0
107 -22 -103 106 0
107 -22 103 -106 0
107 -22 -106 110 0
107 -22 106 -110 0
107 -22 -110 116 0
107 -22 110 -116 0
107 -22 -116 122 0
107 -22 116 -122 0
107 -22 -122 125 0
107 -22 122 -125 0
107 -22 -125 128 0
107 -22 125 -128 0
107 -22 -128 129 0
107 -22 128 -129 0
107 -22 -129 133 0
107 -22 129 -133 0
107 -22 -133 142 0
107 -22 133 -142 0
107 -22 -142 143 0
107 -22 142 -143 0
107 -22 -143 144 0
107 -22 143 -144 0
107 -22 -144 147 0
107 -22 144 -147 0
107 -22 -147 152 0
107 -22 147 -152 0
107 -22 -152 154 0
107 -22 152 -154 0
107 -22 -154 158 0
107 -22 154 -158 0
107 -22 -158 162 0
107 -22 158 -162 0
107 -22 -58 64 0
107 -22 58 -64 0
107 -22 -64 71 0
107 -22 64 -71 0
107 -22 -71 74 0
107 -22 71 -74 0
107 -22 -74 76 0
107 -22 74 -76 0
107 -22 -76 83 0
107 -22 76 -83 0
107 -22 -83 84 0
107 -22 83 -84 0
107 -22 -84 91 0
107 -22 84 -91 0
107 -22 -91 94 0
107 -22 91 -94 0
107 -22 -94 104 0
107 -22 94 -104 0
107 -22 -104 108 0
107 -22 104 -108 0
107 -22 -108 111 0
107 -22 108 -111 0
107 -22 -111 127 0
107 -22 111 -127 0
107 -22 -127 134 0
107 -22 127 -134 0
107 -22 -134 137 0
107 -22 134 -137 0
107 -22 -137 141 0
107 -22 137 -141 0
107 -22 -141 145 0
107 -22 141 -145 0
107 -22 -145 146 0
107 -22 145 -146 0
107 -22 -146 148 0
107 -22 146 -148 0
107 -22 -148 163 0
107 -22 148 -163 0
107 -22 -59 61 0
107 -22 59 -61 0
107 -22 -61 66 0
107 -22 61 -66 0
107 -22 -66 67 0
107 -22 66 -67 0
107 -22 -67 72 0
107 -22 67 -72 0
107 -22 -72 86 0
107 -22 72 -86 0
107 -22 -86 88 0
107 -22 86 -88 0
107 -22 -88 90 0
107 -22 88 -90 0
107 -22 -90 96 0
107 -22 90 -96 0
107 -22 -96 97 0
107 -22 96 -97 0
107 -22 -97 105 0
107 -22 97 -105 0
107 -22 -105 109 0
107 -22 105 -109 0
107 -22 -109 117 0
107 -22 109 -117 0
107 -22 -117 118 0
107 -22 117 -118 0
107 -22 -118 121 0
107 -22 118 -121 0
107 -22 -121 123 0
107 -22 121 -123 0
107 -22 -123 131 0
107 -22 123 -131 0
107 -22 -131 132 0
107 -22 131 -132 0
107 -22 -132 135 0
107 -22 132 -135 0
107 -22 -135 136 0
107 -22 135 -136 0
107 -22 -136 138 0
107 -22 136 -138 0
107 -22 -138 139 0
107 -22 138 -139 0
107 -22 -139 149 0
107 -22 139 -149 0
107 -22 -149 150 0
107 -22 149 -150 0
107 -22 -150 153 0
107 -22 150 -153 0
107 -22 -153 156 0
107 -22 153 -156 0
107 -22 -156 157 0
107 -22 156 -157 0
107 -22 -157 160 0
107 -22 157 -160 0
107 -22 -160 161 0
107 -22 160 -161 0
107 -22 -65 68 0
107 -22 65 -68 0
107 -22 -68 69 0
107 -22 68 -69 0
107 -22 -69 73 0
107 -22 69 -73 0
107 -22 -73 77 0
107 -22 73 -77 0
107 -22 -77 80 0
107 -22 77 -80 0
107 -22 -80 81 0
107 -22 80 -81 0
107 -22 -81 93 0
107 -22 81 -93 0
107 -22 -93 99 0
107 -22 93 -99 0
107 -22 -99 100 0
107 -22 99 -100 0
107 -22 -100 101 0
107 -22 100 -101 0
107 -22 -101 102 0
107 -22 101 -102 0
107 -22 -102 107 0
107 -22 102 -107 0
107 -22 -107 112 0
107 -22 107 -112 0
107 -22 -112 113 0
107 -22 112 -113 0
107 -22 -113 114 0
107 -22 113 -114 0
107 -22 -114 115 0
107 -22 114 -115 0
107 -22 -115 119 0
107 -22 115 -119 0
107 -22 -119 120 0
107 -22 119 -120 0
107 -22 -120 124 0
107 -22 120 -124 0
107 -22 -124 126 0
107 -22 124 -126 0
107 -22 -126 130 0
107 -22 126 -130 0
107 -22 -130 140 0
107 -22 130 -140 0
107 -22 -140 151 0
107 -22 140 -151 0
107 -22 -151 155 0
107 -22 151 -155 0
107 -22 -155 159 0
107 -22 155 -159 0
107 -23 -62 64 0
107 -23 62 -64 0
107 -23 -64 66 0
107 -23 64 -66 0
107 -23 -66 70 0
107 -23 66 -70 0
107 -23 -70 75 0
107 -23 70 -75 0
107 -23 -75 85 0
107 -23 75 -85 0
107 -23 -85 92 0
107 -23 85 -92 0
107 -23 -92 108 0
107 -23 92 -108 0
107 -23 -108 115 0
107 -23 108 -115 0
107 -23 -115 118 0
107 -23 115 -118 0
107 -23 -118 119 0
107 -23 118 -119 0
107 -23 -119 123 0
107 -23 119 -123 0
107 -23 -123 134 0
107 -23 123 -134 0
107 -23 -134 135 0
107 -23 134 -135 0
107 -23 -135 136 0
107 -23 135 -136 0
107 -23 -136 137 0
107 -23 136 -137 0
107 -23 -137 138 0
107 -23 137 -138 0
107 -23 -138 149 0
107 -23 138 -149 0
107 -23 -149 150 0
107 -23 149 -150 0
107 -23 -150 156 0
107 -23 150 -156 0
107 -23 -156 160 0
107 -23 156 -160 0
107 -23 -160 161 0
107 -23 160 -161 0
107 -23 -59 67 0
107 -23 59 -67 0
107 -23 -67 72 0
107 -23 67 -72 0
107 -23 -72 74 0
107 -23 72 -74 0
107 -23 -74 78 0
107 -23 74 -78 0
107 -23 -78 83 0
107 -23 78 -83 0
107 -23 -83 89 0
107 -23 83 -89 0
107 -23 -89 91 0
107 -23 89 -91 0
107 -23 -91 99 0
107 -23 91 -99 0
107 -23 -99 102 0
107 -23 99 -102 0
107 -23 -102 103 0
107 -23 102 -103 0
107 -23 -103 109 0
107 -23 103 -109 0
107 -23 -109 110 0
107 -23 109 -110 0
107 -23 -110 120 0
107 -23 110 -120 0
107 -23 -120 122 0
107 -23 120 -122 0
107 -23 -122 124 0
107 -23 122 -124 0
107 -23 -124 125 0
107 -23 124 -125 0
107 -23 -125 129 0
107 -23 125 -129 0
107 -23 -129 131 0
107 -23 129 -131 0
107 -23 -131 132 0
107 -23 131 -132 0
107 -23 -132 140 0
107 -23 132 -140 0
107 -23 -140 143 0
107 -23 140 -143 0
107 -23 -143 147 0
107 -23 143 -147 0
107 -23 -147 153 0
107 -23 147 -153 0
107 -23 -153 158 0
107 -23 153 -158 0
107 -23 -158 159 0
107 -23 158 -159 0
107 -23 -159 162 0
107 -23 159 -162 0
107 -23 -58 60 0
107 -23 58 -60 0
107 -23 -60 63 0
107 -23 60 -63 0
107 -23 -63 65 0
107 -23 63 -65 0
107 -23 -65 68 0
107 -23 65 -68 0
107 -23 -68 69 0
107 -23 68 -69 0
107 -23 -69 73 0
107 -23 69 -73 0
107 -23 -73 76 0
107 -23 73 -76 0
107 -23 -76 79 0
107 -23 76 -79 0
107 -23 -79 82 0
107 -23 79 -82 0
107 -23 -82 84 0
107 -23 82 -84 0
107 -23 -84 86 0
107 -23 84 -86 0
107 -23 -86 90 0
107 -23 86 -90 0
107 -23 -90 93 0
107 -23 90 -93 0
107 -23 -93 97 0
107 -23 93 -97 0
107 -23 -97 113 0
107 -23 97 -113 0
107 -23 -113 116 0
107 -23 113 -116 0
107 -23 -116 117 0
107 -23 116 -117 0
107 -23 -117 121 0
107 -23 117 -121 0
107 -23 -121 126 0
107 -23 121 -126 0
107 -23 -126 127 0
107 -23 126 -127 0
107 -23 -127 128 0
107 -23 127 -128 0
107 -23 -128 130 0
107 -23 128 -130 0
107 -23 -130 133 0
107 -23 130 -133 0
107 -23 -133 141 0
107 -23 133 -141 0
107 -23 -141 144 0
107 -23 141 -144 0
107 -23 -144 145 0
107 -23 144 -145 0
107 -23 -145 148 0
107 -23 145 -148 0
107 -23 -148 152 0
107 -23 148 -152 0
107 -23 -152 157 0
107 -23 152 -157 0
107 -23 -61 71 0
107 -23 61 -71 0
107 -23 -71 77 0
107 -23 71 -77 0
107 -23 -77 80 0
107 -23 77 -80 0
107 -23 -80 81 0
107 -23 80 -81 0
107 -23 -81 87 0
107 -23 81 -87 0
107 -23 -87 88 0
107 -23 87 -88 0
107 -23 -88 94 0
107 -23 88 -94 0
107 -23 -94 95 0
107 -23 94 -95 0
107 -23 -95 96 0
107 -23 95 -96 0
107 -23 -96 98 0
107 -23 96 -98 0
107 -23 -98 100 0
107 -23 98 -100 0
107 -23 -100 101 0
107 -23 100 -101 0
107 -23 -101 104 0
107 -23 101 -104 0
107 -23 -104 105 0
107 -23 104 -105 0
107 -23 -105 106 0
107 -23 105 -106 0
107 -23 -106 107 0
107 -23 106 -107 0
107 -23 -107 111 0
107 -23 107 -111 0
107 -23 -111 112 0
107 -23 111 -112 0
107 -23 -112 114 0
107 -23 112 -114 0
107 -23 -114 139 0
107 -23 114 -139 0
107 -23 -139 142 0
107 -23 139 -142 0
107 -23 -142 146 0
107 -23 142 -146 0
107 -23 -146 151 0
107 -23 146 -151 0
107 -23 -151 154 0
107 -23 151 -154 0
107 -23 -154 155 0
107 -23 154 -155 0
107 -23 -155 163 0
107 -23 155 -163 0
107 -24 -62 69 0
107 -24 62 -69 0
107 -24 -69 70 0
107 -24 69 -70 0
107 -24 -70 75 0
107 -24 70 -75 0
107 -24 -75 79 0
107 -24 75 -79 0
107 -24 -79 80 0
107 -24 79 -80 0
107 -24 -80 83 0
107 -24 80 -83 0
107 -24 -83 86 0
107 -24 83 -86 0
107 -24 -86 104 0
107 -24 86 -104 0
107 -24 -104 109 0
107 -24 104 -109 0
107 -24 -109 113 0
107 -24 109 -113 0
107 -24 -113 117 0
107 -24 113 -117 0
107 -24 -117 118 0
107 -24 117 -118 0
107 -24 -118 120 0
107 -24 118 -120 0
107 -24 -120 121 0
107 -24 120 -121 0
107 -24 -121 125 0
107 -24 121 -125 0
107 -24 -125 126 0
107 -24 125 -126 0
107 -24 -126 129 0
107 -24 126 -129 0
107 -24 -129 130 0
107 -24 129 -130 0
107 -24 -130 133 0
107 -24 130 -133 0
107 -24 -133 135 0
107 -24 133 -135 0
107 -24 -135 138 0
107 -24 135 -138 0
107 -24 -138 140 0
107 -24 138 -140 0
107 -24 -140 157 0
107 -24 140 -157 0
107 -24 -60 66 0
107 -24 60 -66 0
107 -24 -66 67 0
107 -24 66 -67 0
107 -24 -67 72 0
107 -24 67 -72 0
107 -24 -72 77 0
107 -24 72 -77 0
107 -24 -77 78 0
107 -24 77 -78 0
107 -24 -78 87 0
107 -24 78 -87 0
107 -24 -87 92 0
107 -24 87 -92 0
107 -24 -92 93 0
107 -24 92 -93 0
107 -24 -93 95 0
107 -24 93 -95 0
107 -24 -95 99 0
107 -24 95 -99 0
107 -24 -99 105 0
107 -24 99 -105 0
107 -24 -105 119 0
107 -24 105 -119 0
107 -24 -119 123 0
107 -24 119 -123 0
107 -24 -123 124 0
107 -24 123 -124 0
107 -24 -124 137 0
107 -24 124 -137 0
107 -24 -137 148 0
107 -24 137 -148 0
107 -24 -148 152 0
107 -24 148 -152 0
107 -24 -152 156 0
107 -24 152 -156 0
107 -24 -156 160 0
107 -24 156 -160 0
107 -24 -160 163 0
107 -24 160 -163 0
107 -24 -58 61 0
107 -24 58 -61 0
107 -24 -61 63 0
107 -24 61 -63 0
107 -24 -63 71 0
107 -24 63 -71 0
107 -24 -71 76 0
107 -24 71 -76 0
107 -24 -76 82 0
107 -24 76 -82 0
107 -24 -82 84 0
107 -24 82 -84 0
107 -24 -84 88 0
107 -24 84 -88 0
107 -24 -88 90 0
107 -24 88 -90 0
107 -24 -90 97 0
107 -24 90 -97 0
107 -24 -97 101 0
107 -24 97 -101 0
107 -24 -101 102 0
107 -24 101 -102 0
107 -24 -102 111 0
107 -24 102 -111 0
107 -24 -111 114 0
107 -24 111 -114 0
107 -24 -114 116 0
107 -24 114 -116 0
107 -24 -116 127 0
107 -24 116 -127 0
107 -24 -127 131 0
107 -24 127 -131 0
107 -24 -131 132 0
107 -24 131 -132 0
107 -24 -132 139 0
107 -24 132 -139 0
107 -24 -139 141 0
107 -24 139 -141 0
107 -24 -141 144 0
107 -24 141 -144 0
107 -24 -144 145 0
107 -24 144 -145 0
107 -24 -145 147 0
107 -24 145 -147 0
107 -24 -147 149 0
107 -24 147 -149 0
107 -24 -149 150 0
107 -24 149 -150 0
107 -24 -150 153 0
107 -24 150 -153 0
107 -24 -153 154 0
107 -24 153 -154 0
107 -24 -154 161 0
107 -24 154 -161 0
107 -24 -161 162 0
107 -24 161 -162 0
107 -24 -59 64 0
107 -24 59 -64 0
107 -24 -64 65 0
107 -24 64 -65 0
107 -24 -65 68 0
107 -24 65 -68 0
107 -24 -68 73 0
107 -24 68 -73 0
107 -24 -73 74 0
107 -24 73 -74 0
107 -24 -74 81 0
107 -24 74 -81 0
107 -24 -81 85 0
107 -24 81 -85 0
107 -24 -85 89 0
107 -24 85 -89 0
107 -24 -89 91 0
107 -24 89 -91 0
107 -24 -91 94 0
107 -24 91 -94 0
107 -24 -94 96 0
107 -24 94 -96 0
107 -24 -96 98 0
107 -24 96 -98 0
107 -24 -98 100 0
107 -24 98 -100 0
107 -24 -100 103 0
107 -24 100 -103 0
107 -24 -103 106 0
107 -24 103 -106 0
107 -24 -106 107 0
107 -24 106 -107 0
107 -24 -107 108 0
107 -24 107 -108 0
107 -24 -108 110 0
107 -24 108 -110 0
107 -24 -110 112 0
107 -24 110 -112 0
107 -24 -112 115 0
107 -24 112 -115 0
107 -24 -115 122 0
107 -24 115 -122 0
107 -24 -122 128 0
107 -24 122 -128 0
107 -24 -128 134 0
107 -24 128 -134 0
107 -24 -134 136 0
107 -24 134 -136 0
107 -24 -136 142 0
107 -24 136 -142 0
107 -24 -142 143 0
107 -24 142 -143 0
107 -24 -143 146 0
107 -24 143 -146 0
107 -24 -146 151 0
107 -24 146 -151 0
107 -24 -151 155 0
107 -24 151 -155 0
107 -24 -155 158 0
107 -24 155 -158 0
107 -24 -158 159 0
107 -24 158 -159 0
107 -25 -65 68 0
107 -25 65 -68 0
107 -25 -68 69 0
107 -25 68 -69 0
107 -25 -69 70 0
107 -25 69 -70 0
107 -25 -70 73 0
107 -25 70 -73 0
107 -25 -73 79 0
107 -25 73 -79 0
107 -25 -79 80 0
107 -25 79 -80 0
107 -25 -80 81 0
107 -25 80 -81 0
107 -25 -81 83 0
107 -25 81 -83 0
107 -25 -83 93 0
107 -25 83 -93 0
107 -25 -93 102 0
107 -25 93 -102 0
107 -25 -102 104 0
107 -25 102 -104 0
107 -25 -104 107 0
107 -25 104 -107 0
107 -25 -107 108 0
107 -25 107 -108 0
107 -25 -108 111 0
107 -25 108 -111 0
107 -25 -111 117 0
107 -25 111 -117 0
107 -25 -117 120 0
107 -25 117 -120 0
107 -25 -120 122 0
107 -25 120 -122 0
107 -25 -122 127 0
107 -25 122 -127 0
107 -25 -127 128 0
107 -25 127 -128 0
107 -25 -128 129 0
107 -25 128 -129 0
107 -25 -129 132 0
107 -25 129 -132 0
107 -25 -132 134 0
107 -25 132 -134 0
107 -25 -134 139 0
107 -25 134 -139 0
107 -25 -139 140 0
107 -25 139 -140 0
107 -25 -140 144 0
107 -25 140 -144 0
107 -25 -144 150 0
107 -25 144 -150 0
107 -25 -150 157 0
107 -25 150 -157 0
107 -25 -157 160 0
107 -25 157 -160 0
107 -25 -64 71 0
107 -25 64 -71 0
107 -25 -71 75 0
107 -25 71 -75 0
107 -25 -75 76 0
107 -25 75 -76 0
107 -25 -76 90 0
107 -25 76 -90 0
107 -25 -90 95 0
107 -25 90 -95 0
107 -25 -95 97 0
107 -25 95 -97 0
107 -25 -97 99 0
107 -25 97 -99 0
107 -25 -99 109 0
107 -25 99 -109 0
107 -25 -109 115 0
107 -25 109 -115 0
107 -25 -115 118 0
107 -25 115 -118 0
107 -25 -118 126 0
107 -25 118 -126 0
107 -25 -126 131 0
107 -25 126 -131 0
107 -25 -131 135 0
107 -25 131 -135 0
107 -25 -135 138 0
107 -25 135 -138 0
107 -25 -138 143 0
107 -25 138 -143 0
107 -25 -143 147 0
107 -25 143 -147 0
107 -25 -147 149 0
107 -25 147 -149 0
107 -25 -149 153 0
107 -25 149 -153 0
107 -25 -153 155 0
107 -25 153 -155 0
107 -25 -155 156 0
107 -25 155 -156 0
107 -25 -59 62 0
107 -25 59 -62 0
107 -25 -62 66 0
107 -25 62 -66 0
107 -25 -66 67 0
107 -25 66 -67 0
107 -25 -67 72 0
107 -25 67 -72 0
107 -25 -72 74 0
107 -25 72 -74 0
107 -25 -74 87 0
107 -25 74 -87 0
107 -25 -87 89 0
107 -25 87 -89 0
107 -25 -89 91 0
107 -25 89 -91 0
107 -25 -91 96 0
107 -25 91 -96 0
107 -25 -96 105 0
107 -25 96 -105 0
107 -25 -105 110 0
107 -25 105 -110 0
107 -25 -110 112 0
107 -25 110 -112 0
107 -25 -112 113 0
107 -25 112 -113 0
107 -25 -113 114 0
107 -25 113 -114 0
107 -25 -114 116 0
107 -25 114 -116 0
107 -25 -116 124 0
107 -25 116 -124 0
107 -25 -124 125 0
107 -25 124 -125 0
107 -25 -125 130 0
107 -25 125 -130 0
107 -25 -130 137 0
107 -25 130 -137 0
107 -25 -137 142 0
107 -25 137 -142 0
107 -25 -142 151 0
107 -25 142 -151 0
107 -25 -151 152 0
107 -25 151 -152 0
107 -25 -152 162 0
107 -25 152 -162 0
107 -25 -58 60 0
107 -25 58 -60 0
107 -25 -60 61 0
107 -25 60 -61 0
107 -25 -61 63 0
107 -25 61 -63 0
107 -25 -63 77 0
107 -25 63 -77 0
107 -25 -77 78 0
107 -25 77 -78 0
107 -25 -78 82 0
107 -25 78 -82 0
107 -25 -82 84 0
107 -25 82 -84 0
107 -25 -84 85 0
107 -25 84 -85 0
107 -25 -85 86 0
107 -25 85 -86 0
107 -25 -86 88 0
107 -25 86 -88 0
107 -25 -88 92 0
107 -25 88 -92 0
107 -25 -92 94 0
107 -25 92 -94 0
107 -25 -94 98 0
107 -25 94 -98 0
107 -25 -98 100 0
107 -25 98 -100 0
107 -25 -100 101 0
107 -25 100 -101 0
107 -25 -101 103 0
107 -25 101 -103 0
107 -25 -103 106 0
107 -25 103 -106 0
107 -25 -106 119 0
107 -25 106 -119 0
107 -25 -119 121 0
107 -25 119 -121 0
107 -25 -121 123 0
107 -25 121 -123 0
107 -25 -123 133 0
107 -25 123 -133 0
107 -25 -133 136 0
107 -25 133 -136 0
107 -25 -136 141 0
107 -25 136 -141 0
107 -25 -141 145 0
107 -25 141 -145 0
107 -25 -145 146 0
107 -25 145 -146 0
107 -25 -146 148 0
107 -25 146 -148 0
107 -25 -148 154 0
107 -25 148 -154 0
107 -25 -154 158 0
107 -25 154 -158 0
107 -25 -158 159 0
107 -25 158 -159 0
107 -25 -159 161 0
107 -25 159 -161 0
107 -25 -161 163 0
107 -25 161 -163 0
107 -26 -59 69 0
107 -26 59 -69 0
107 -26 -69 70 0
107 -26 69 -70 0
107 -26 -70 74 0
107 -26 70 -74 0
107 -26 -74 79 0
107 -26 74 -79 0
107 -26 -79 81 0
107 -26 79 -81 0
107 -26 -81 83 0
107 -26 81 -83 0
107 -26 -83 85 0
107 -26 83 -85 0
107 -26 -85 86 0
107 -26 85 -86 0
107 -26 -86 88 0
107 -26 86 -88 0
107 -26 -88 89 0
107 -26 88 -89 0
107 -26 -89 93 0
107 -26 89 -93 0
107 -26 -93 99 0
107 -26 93 -99 0
107 -26 -99 106 0
107 -26 99 -106 0
107 -26 -106 108 0
107 -26 106 -108 0
107 -26 -108 112 0
107 -26 108 -112 0
107 -26 -112 115 0
107 -26 112 -115 0
107 -26 -115 125 0
107 -26 115 -125 0
107 -26 -125 130 0
107 -26 125 -130 0
107 -26 -130 134 0
107 -26 130 -134 0
107 -26 -134 135 0
107 -26 134 -135 0
107 -26 -135 141 0
107 -26 135 -141 0
107 -26 -141 142 0
107 -26 141 -142 0
107 -26 -142 143 0
107 -26 142 -143 0
107 -26 -143 144 0
107 -26 143 -144 0
107 -26 -144 149 0
107 -26 144 -149 0
107 -26 -149 153 0
107 -26 149 -153 0
107 -26 -153 163 0
107 -26 153 -163 0
107 -26 -62 82 0
107 -26 62 -82 0
107 -26 -82 87 0
107 -26 82 -87 0
107 -26 -87 92 0
107 -26 87 -92 0
107 -26 -92 104 0
107 -26 92 -104 0
107 -26 -104 114 0
107 -26 104 -114 0
107 -26 -114 122 0
107 -26 114 -122 0
107 -26 -122 124 0
107 -26 122 -124 0
107 -26 -124 129 0
107 -26 124 -129 0
107 -26 -129 136 0
107 -26 129 -136 0
107 -26 -136 146 0
107 -26 136 -146 0
107 -26 -146 151 0
107 -26 146 -151 0
107 -26 -151 154 0
107 -26 151 -154 0
107 -26 -154 155 0
107 -26 154 -155 0
107 -26 -58 67 0
107 -26 58 -67 0
107 -26 -67 68 0
107 -26 67 -68 0
107 -26 -68 71 0
107 -26 68 -71 0
107 -26 -71 72 0
107 -26 71 -72 0
107 -26 -72 73 0
107 -26 72 -73 0
107 -26 -73 76 0
107 -26 73 -76 0
107 -26 -76 77 0
107 -26 76 -77 0
107 -26 -77 90 0
107 -26 77 -90 0
107 -26 -90 96 0
107 -26 90 -96 0
107 -26 -96 97 0
107 -26 96 -97 0
107 -26 -97 98 0
107 -26 97 -98 0
107 -26 -98 105 0
107 -26 98 -105 0
107 -26 -105 109 0
107 -26 105 -109 0
107 -26 -109 111 0
107 -26 109 -111 0
107 -26 -111 113 0
107 -26 111 -113 0
107 -26 -113 117 0
107 -26 113 -117 0
107 -26 -117 118 0
107 -26 117 -118 0
107 -26 -118 119 0
107 -26 118 -119 0
107 -26 -119 121 0
107 -26 119 -121 0
107 -26 -121 128 0
107 -26 121 -128 0
107 -26 -128 132 0
107 -26 128 -132 0
107 -26 -132 133 0
107 -26 132 -133 0
107 -26 -133 137 0
107 -26 133 -137 0
107 -26 -137 138 0
107 -26 137 -138 0
107 -26 -138 139 0
107 -26 138 -139 0
107 -26 -139 145 0
107 -26 139 -145 0
107 -26 -145 156 0
107 -26 145 -156 0
107 -26 -156 157 0
107 -26 156 -157 0
107 -26 -157 158 0
107 -26 157 -158 0
107 -26 -158 159 0
107 -26 158 -159 0
107 -26 -159 160 0
107 -26 159 -160 0
107 -26 -160 161 0
107 -26 160 -161 0
107 -26 -161 162 0
107 -26 161 -162 0
107 -26 -60 61 0
107 -26 60 -61 0
107 -26 -61 63 0
107 -26 61 -63 0
107 -26 -63 64 0
107 -26 63 -64 0
107 -26 -64 65 0
107 -26 64 -65 0
107 -26 -65 66 0
107 -26 65 -66 0
107 -26 -66 75 0
107 -26 66 -75 0
107 -26 -75 78 0
107 -26 75 -78 0
107 -26 -78 80 0
107 -26 78 -80 0
107 -26 -80 84 0
107 -26 80 -84 0
107 -26 -84 91 0
107 -26 84 -91 0
107 -26 -91 94 0
107 -26 91 -94 0
107 -26 -94 95 0
107 -26 94 -95 0
107 -26 -95 100 0
107 -26 95 -100 0
107 -26 -100 101 0
107 -26 100 -101 0
107 -26 -101 102 0
107 -26 101 -102 0
107 -26 -102 103 0
107 -26 102 -103 0
107 -26 -103 107 0
107 -26 103 -107 0
107 -26 -107 110 0
107 -26 107 -110 0
107 -26 -110 116 0
107 -26 110 -116 0
107 -26 -116 120 0
107 -26 116 -120 0
107 -26 -120 123 0
107 -26 120 -123 0
107 -26 -123 126 0
107 -26 123 -126 0
107 -26 -126 127 0
107 -26 126 -127 0
107 -26 -127 131 0
107 -26 127 -131 0
107 -26 -131 140 0
107 -26 131 -140 0
107 -26 -140 147 0
107 -26 140 -147 0
107 -26 -147 148 0
107 -26 147 -148 0
107 -26 -148 150 0
107 -26 148 -150 0
107 -26 -150 152 0
107 -26 150 -152 0
107 -27 -60 67 0
107 -27 60 -67 0
107 -27 -67 72 0
107 -27 67 -72 0
107 -27 -72 82 0
107 -27 72 -82 0
107 -27 -82 85 0
107 -27 82 -85 0
107 -27 -85 86 0
107 -27 85 -86 0
107 -27 -86 89 0
107 -27 86 -89 0
107 -27 -89 98 0
107 -27 89 -98 0
107 -27 -98 100 0
107 -27 98 -100 0
107 -27 -100 108 0
107 -27 100 -108 0
107 -27 -108 115 0
107 -27 108 -115 0
107 -27 -115 118 0
107 -27 115 -118 0
107 -27 -118 127 0
107 -27 118 -127 0
107 -27 -127 128 0
107 -27 127 -128 0
107 -27 -128 132 0
107 -27 128 -132 0
107 -27 -132 134 0
107 -27 132 -134 0
107 -27 -134 136 0
107 -27 134 -136 0
107 -27 -136 137 0
107 -27 136 -137 0
107 -27 -137 139 0
107 -27 137 -139 0
107 -27 -139 143 0
107 -27 139 -143 0
107 -27 -143 145 0
107 -27 143 -145 0
107 -27 -145 152 0
107 -27 145 -152 0
107 -27 -152 154 0
107 -27 152 -154 0
107 -27 -154 155 0
107 -27 154 -155 0
107 -27 -155 157 0
107 -27 155 -157 0
107 -27 -157 159 0
107 -27 157 -159 0
107 -27 -159 160 0
107 -27 159 -160 0
107 -27 -160 163 0
107 -27 160 -163 0
107 -27 -64 66 0
107 -27 64 -66 0
107 -27 -66 68 0
107 -27 66 -68 0
107 -27 -68 73 0
107 -27 68 -73 0
107 -27 -73 75 0
107 -27 73 -75 0
107 -27 -75 76 0
107 -27 75 -76 0
107 -27 -76 77 0
107 -27 76 -77 0
107 -27 -77 80 0
107 -27 77 -80 0
107 -27 -80 81 0
107 -27 80 -81 0
107 -27 -81 87 0
107 -27 81 -87 0
107 -27 -87 90 0
107 -27 87 -90 0
107 -27 -90 91 0
107 -27 90 -91 0
107 -27 -91 94 0
107 -27 91 -94 0
107 -27 -94 102 0
107 -27 94 -102 0
107 -27 -102 105 0
107 -27 102 -105 0
107 -27 -105 106 0
107 -27 105 -106 0
107 -27 -106 112 0
107 -27 106 -112 0
107 -27 -112 126 0
107 -27 112 -126 0
107 -27 -126 131 0
107 -27 126 -131 0
107 -27 -131 133 0
107 -27 131 -133 0
107 -27 -133 140 0
107 -27 133 -140 0
107 -27 -140 147 0
107 -27 140 -147 0
107 -27 -147 156 0
107 -27 147 -156 0
107 -27 -156 158 0
107 -27 156 -158 0
107 -27 -158 161 0
107 -27 158 -161 0
107 -27 -58 61 0
107 -27 58 -61 0
107 -27 -61 63 0
107 -27 61 -63 0
107 -27 -63 65 0
107 -27 63 -65 0
107 -27 -65 69 0
107 -27 65 -69 0
107 -27 -69 71 0
107 -27 69 -71 0
107 -27 -71 74 0
107 -27 71 -74 0
107 -27 -74 79 0
107 -27 74 -79 0
107 -27 -79 92 0
107 -27 79 -92 0
107 -27 -92 93 0
107 -27 92 -93 0
107 -27 -93 96 0
107 -27 93 -96 0
107 -27 -96 97 0
107 -27 96 -97 0
107 -27 -97 99 0
107 -27 97 -99 0
107 -27 -99 101 0
107 -27 99 -101 0
107 -27 -101 104 0
107 -27 101 -104 0
107 -27 -104 107 0
107 -27 104 -107 0
107 -27 -107 113 0
107 -27 107 -113 0
107 -27 -113 114 0
107 -27 113 -114 0
107 -27 -114 116 0
107 -27 114 -116 0
107 -27 -116 117 0
107 -27 116 -117 0
107 -27 -117 120 0
107 -27 117 -120 0
107 -27 -120 121 0
107 -27 120 -121 0
107 -27 -121 122 0
107 -27 121 -122 0
107 -27 -122 123 0
107 -27 122 -123 0
107 -27 -123 124 0
107 -27 123 -124 0
107 -27 -124 142 0
107 -27 124 -142 0
107 -27 -142 144 0
107 -27 142 -144 0
107 -27 -144 150 0
107 -27 144 -150 0
107 -27 -150 151 0
107 -27 150 -151 0
107 -27 -59 62 0
107 -27 59 -62 0
107 -27 -62 70 0
107 -27 62 -70 0
107 -27 -70 78 0
107 -27 70 -78 0
107 -27 -78 83 0
107 -27 78 -83 0
107 -27 -83 84 0
107 -27 83 -84 0
107 -27 -84 88 0
107 -27 84 -88 0
107 -27 -88 95 0
107 -27 88 -95 0
107 -27 -95 103 0
107 -27 95 -103 0
107 -27 -103 109 0
107 -27 103 -109 0
107 -27 -109 110 0
107 -27 109 -110 0
107 -27 -110 111 0
107 -27 110 -111 0
107 -27 -111 119 0
107 -27 111 -119 0
107 -27 -119 125 0
107 -27 119 -125 0
107 -27 -125 129 0
107 -27 125 -129 0
107 -27 -129 130 0
107 -27 129 -130 0
107 -27 -130 135 0
107 -27 130 -135 0
107 -27 -135 138 0
107 -27 135 -138 0
107 -27 -138 141 0
107 -27 138 -141 0
107 -27 -141 146 0
107 -27 141 -146 0
107 -27 -146 148 0
107 -27 146 -148 0
107 -27 -148 149 0
107 -27 148 -149 0
107 -27 -149 153 0
107 -27 149 -153 0
107 -27 -153 162 0
107 -27 153 -162 0
107 -28 -65 67 0
107 -28 65 -67 0
107 -28 -67 69 0
107 -28 67 -69 0
107 -28 -69 71 0
107 -28 69 -71 0
107 -28 -71 72 0
107 -28 71 -72 0
107 -28 -72 80 0
107 -28 72 -80 0
107 -28 -80 81 0
107 -28 80 -81 0
107 -28 -81 84 0
107 -28 81 -84 0
107 -28 -84 88 0
107 -28 84 -88 0
107 -28 -88 106 0
107 -28 88 -106 0
107 -28 -106 108 0
107 -28 106 -108 0
107 -28 -108 121 0
107 -28 108 -121 0
107 -28 -121 124 0
107 -28 121 -124 0
107 -28 -124 131 0
107 -28 124 -131 0
107 -28 -131 136 0
107 -28 131 -136 0
107 -28 -136 144 0
107 -28 136 -144 0
107 -28 -144 158 0
107 -28 144 -158 0
107 -28 -61 63 0
107 -28 61 -63 0
107 -28 -63 64 0
107 -28 63 -64 0
107 -28 -64 66 0
107 -28 64 -66 0
107 -28 -66 74 0
107 -28 66 -74 0
107 -28 -74 77 0
107 -28 74 -77 0
107 -28 -77 78 0
107 -28 77 -78 0
107 -28 -78 82 0
107 -28 78 -82 0
107 -28 -82 86 0
107 -28 82 -86 0
107 -28 -86 89 0
107 -28 86 -89 0
107 -28 -89 91 0
107 -28 89 -91 0
107 -28 -91 92 0
107 -28 91 -92 0
107 -28 -92 103 0
107 -28 92 -103 0
107 -28 -103 105 0
107 -28 103 -105 0
107 -28 -105 107 0
107 -28 105 -107 0
107 -28 -107 115 0
107 -28 107 -115 0
107 -28 -115 117 0
107 -28 115 -117 0
107 -28 -117 122 0
107 -28 117 -122 0
107 -28 -122 123 0
107 -28 122 -123 0
107 -28 -123 127 0
107 -28 123 -127 0
107 -28 -127 128 0
107 -28 127 -128 0
107 -28 -128 132 0
107 -28 128 -132 0
107 -28 -132 133 0
107 -28 132 -133 0
107 -28 -133 135 0
107 -28 133 -135 0
107 -28 -135 140 0
107 -28 135 -140 0
107 -28 -140 141 0
107 -28 140 -141 0
107 -28 -141 149 0
107 -28 141 -149 0
107 -28 -149 151 0
107 -28 149 -151 0
107 -28 -151 153 0
107 -28 151 -153 0
107 -28 -153 162 0
107 -28 153 -162 0
107 -28 -62 68 0
107 -28 62 -68 0
107 -28 -68 73 0
107 -28 68 -73 0
107 -28 -73 76 0
107 -28 73 -76 0
107 -28 -76 79 0
107 -28 76 -79 0
107 -28 -79 85 0
107 -28 79 -85 0
107 -28 -85 90 0
107 -28 85 -90 0
107 -28 -90 93 0
107 -28 90 -93 0
107 -28 -93 94 0
107 -28 93 -94 0
107 -28 -94 95 0
107 -28 94 -95 0
107 -28 -95 98 0
107 -28 95 -98 0
107 -28 -98 113 0
107 -28 98 -113 0
107 -28 -113 114 0
107 -28 113 -114 0
107 -28 -114 116 0
107 -28 114 -116 0
107 -28 -116 118 0
107 -28 116 -118 0
107 -28 -118 119 0
107 -28 118 -119 0
107 -28 -119 120 0
107 -28 119 -120 0
107 -28 -120 130 0
107 -28 120 -130 0
107 -28 -130 139 0
107 -28 130 -139 0
107 -28 -139 142 0
107 -28 139 -142 0
107 -28 -142 143 0
107 -28 142 -143 0
107 -28 -143 145 0
107 -28 143 -145 0
107 -28 -145 147 0
107 -28 145 -147 0
107 -28 -147 148 0
107 -28 147 -148 0
107 -28 -148 150 0
107 -28 148 -150 0
107 -28 -150 154 0
107 -28 150 -154 0
107 -28 -154 159 0
107 -28 154 -159 0
107 -28 -58 59 0
107 -28 58 -59 0
107 -28 -59 60 0
107 -28 59 -60 0
107 -28 -60 70 0
107 -28 60 -70 0
107 -28 -70 75 0
107 -28 70 -75 0
107 -28 -75 83 0
107 -28 75 -83 0
107 -28 -83 87 0
107 -28 83 -87 0
107 -28 -87 96 0
107 -28 87 -96 0
107 -28 -96 97 0
107 -28 96 -97 0
107 -28 -97 99 0
107 -28 97 -99 0
107 -28 -99 100 0
107 -28 99 -100 0
107 -28 -100 101 0
107 -28 100 -101 0
107 -28 -101 102 0
107 -28 101 -102 0
107 -28 -102 104 0
107 -28 102 -104 0
107 -28 -104 109 0
107 -28 104 -109 0
107 -28 -109 110 0
107 -28 109 -110 0
107 -28 -110 111 0
107 -28 110 -111 0
107 -28 -111 112 0
107 -28 111 -112 0
107 -28 -112 125 0
107 -28 112 -125 0
107 -28 -125 126 0
107 -28 125 -126 0
107 -28 -126 129 0
107 -28 126 -129 0
107 -28 -129 134 0
107 -28 129 -134 0
107 -28 -134 137 0
107 -28 134 -137 0
107 -28 -137 138 0
107 -28 137 -138 0
107 -28 -138 146 0
107 -28 138 -146 0
107 -28 -146 152 0
107 -28 146 -152 0
107 -28 -152 155 0
107 -28 152 -155 0
107 -28 -155 156 0
107 -28 155 -156 0
107 -28 -156 157 0
107 -28 156 -157 0
107 -28 -157 160 0
107 -28 157 -160 0
107 -28 -160 161 0
107 -28 160 -161 0
107 -28 -161 163 0
107 -28 161 -163 0
107 -29 -62 88 0
107 -29 62 -88 0
107 -29 -88 89 0
107 -29 88 -89 0
107 -29 -89 92 0
107 -29 89 -92 0
107 -29 -92 95 0
107 -29 92 -95 0
107 -29 -95 106 0
107 -29 95 -106 0
107 -29 -106 108 0
107 -29 106 -108 0
107 -29 -108 111 0
107 -29 108 -111 0
107 -29 -111 117 0
107 -29 111 -117 0
107 -29 -117 119 0
107 -29 117 -119 0
107 -29 -119 137 0
107 -29 119 -137 0
107 -29 -137 140 0
107 -29 137 -140 0
107 -29 -140 141 0
107 -29 140 -141 0
107 -29 -141 142 0
107 -29 141 -142 0
107 -29 -142 145 0
107 -29 142 -145 0
107 -29 -145 150 0
107 -29 145 -150 0
107 -29 -150 151 0
107 -29 150 -151 0
107 -29 -151 153 0
107 -29 151 -153 0
107 -29 -63 74 0
107 -29 63 -74 0
107 -29 -74 81 0
107 -29 74 -81 0
107 -29 -81 84 0
107 -29 81 -84 0
107 -29 -84 86 0
107 -29 84 -86 0
107 -29 -86 90 0
107 -29 86 -90 0
107 -29 -90 91 0
107 -29 90 -91 0
107 -29 -91 93 0
107 -29 91 -93 0
107 -29 -93 99 0
107 -29 93 -99 0
107 -29 -99 100 0
107 -29 99 -100 0
107 -29 -100 102 0
107 -29 100 -102 0
107 -29 -102 112 0
107 -29 102 -112 0
107 -29 -112 120 0
107 -29 112 -120 0
107 -29 -120 122 0
107 -29 120 -122 0
107 -29 -122 124 0
107 -29 122 -124 0
107 -29 -124 125 0
107 -29 124 -125 0
107 -29 -125 128 0
107 -29 125 -128 0
107 -29 -128 130 0
107 -29 128 -130 0
107 -29 -130 139 0
107 -29 130 -139 0
107 -29 -139 154 0
107 -29 139 -154 0
107 -29 -59 61 0
107 -29 59 -61 0
107 -29 -61 65 0
107 -29 61 -65 0
107 -29 -65 66 0
107 -29 65 -66 0
107 -29 -66 68 0
107 -29 66 -68 0
107 -29 -68 69 0
107 -29 68 -69 0
107 -29 -69 70 0
107 -29 69 -70 0
107 -29 -70 71 0
107 -29 70 -71 0
107 -29 -71 73 0
107 -29 71 -73 0
107 -29 -73 75 0
107 -29 73 -75 0
107 -29 -75 77 0
107 -29 75 -77 0
107 -29 -77 78 0
107 -29 77 -78 0
107 -29 -78 83 0
107 -29 78 -83 0
107 -29 -83 94 0
107 -29 83 -94 0
107 -29 -94 97 0
107 -29 94 -97 0
107 -29 -97 103 0
107 -29 97 -103 0
107 -29 -103 104 0
107 -29 103 -104 0
107 -29 -104 115 0
107 -29 104 -115 0
107 -29 -115 121 0
107 -29 115 -121 0
107 -29 -121 123 0
107 -29 121 -123 0
107 -29 -123 126 0
107 -29 123 -126 0
107 -29 -126 127 0
107 -29 126 -127 0
107 -29 -127 129 0
107 -29 127 -129 0
107 -29 -129 134 0
107 -29 129 -134 0
107 -29 -134 135 0
107 -29 134 -135 0
107 -29 -135 138 0
107 -29 135 -138 0
107 -29 -138 143 0
107 -29 138 -143 0
107 -29 -143 146 0
107 -29 143 -146 0
107 -29 -146 147 0
107 -29 146 -147 0
107 -29 -147 155 0
107 -29 147 -155 0
107 -29 -155 157 0
107 -29 155 -157 0
107 -29 -157 159 0
107 -29 157 -159 0
107 -29 -159 163 0
107 -29 159 -163 0
107 -29 -58 60 0
107 -29 58 -60 0
107 -29 -60 64 0
107 -29 60 -64 0
107 -29 -64 67 0
107 -29 64 -67 0
107 -29 -67 72 0
107 -29 67 -72 0
107 -29 -72 76 0
107 -29 72 -76 0
107 -29 -76 79 0
107 -29 76 -79 0
107 -29 -79 80 0
107 -29 79 -80 0
107 -29 -80 82 0
107 -29 80 -82 0
107 -29 -82 85 0
107 -29 82 -85 0
107 -29 -85 87 0
107 -29 85 -87 0
107 -29 -87 96 0
107 -29 87 -96 0
107 -29 -96 98 0
107 -29 96 -98 0
107 -29 -98 101 0
107 -29 98 -101 0
107 -29 -101 105 0
107 -29 101 -105 0
107 -29 -105 107 0
107 -29 105 -107 0
107 -29 -107 109 0
107 -29 107 -109 0
107 -29 -109 110 0
107 -29 109 -110 0
107 -29 -110 113 0
107 -29 110 -113 0
107 -29 -113 114 0
107 -29 113 -114 0
107 -29 -114 116 0
107 -29 114 -116 0
107 -29 -116 118 0
107 -29 116 -118 0
107 -29 -118 131 0
107 -29 118 -131 0
107 -29 -131 132 0
107 -29 131 -132 0
107 -29 -132 133 0
107 -29 132 -133 0
107 -29 -133 136 0
107 -29 133 -136 0
107 -29 -136 144 0
107 -29 136 -144 0
107 -29 -144 148 0
107 -29 144 -148 0
107 -29 -148 149 0
107 -29 148 -149 0
107 -29 -149 152 0
107 -29 149 -152 0
107 -29 -152 156 0
107 -29 152 -156 0
107 -29 -156 158 0
107 -29 156 -158 0
107 -29 -158 160 0
107 -29 158 -160 0
107 -29 -160 161 0
107 -29 160 -161 0
107 -29 -161 162 0
107 -29 161 -162 0
107 -30 -58 62 0
107 -30 58 -62 0
107 -30 -62 67 0
107 -30 62 -67 0
107 -30 -67 71 0
107 -30 67 -71 0
107 -30 -71 72 0
107 -30 71 -72 0
107 -30 -72 75 0
107 -30 72 -75 0
107 -30 -75 82 0
107 -30 75 -82 0
107 -30 -82 83 0
107 -30 82 -83 0
107 -30 -83 85 0
107 -30 83 -85 0
107 -30 -85 86 0
107 -30 85 -86 0
107 -30 -86 89 0
107 -30 86 -89 0
107 -30 -89 90 0
107 -30 89 -90 0
107 -30 -90 95 0
107 -30 90 -95 0
107 -30 -95 97 0
107 -30 95 -97 0
107 -30 -97 98 0
107 -30 97 -98 0
107 -30 -98 99 0
107 -30 98 -99 0
107 -30 -99 101 0
107 -30 99 -101 0
107 -30 -101 104 0
107 -30 101 -104 0
107 -30 -104 106 0
107 -30 104 -106 0
107 -30 -106 108 0
107 -30 106 -108 0
107 -30 -108 109 0
107 -30 108 -109 0
107 -30 -109 116 0
107 -30 109 -116 0
107 -30 -116 121 0
107 -30 116 -121 0
107 -30 -121 122 0
107 -30 121 -122 0
107 -30 -122 123 0
107 -30 122 -123 0
107 -30 -123 125 0
107 -30 123 -125 0
107 -30 -125 127 0
107 -30 125 -127 0
107 -30 -127 131 0
107 -30 127 -131 0
107 -30 -131 138 0
107 -30 131 -138 0
107 -30 -138 141 0
107 -30 138 -141 0
107 -30 -141 142 0
107 -30 141 -142 0
107 -30 -142 148 0
107 -30 142 -148 0
107 -30 -148 151 0
107 -30 148 -151 0
107 -30 -151 157 0
107 -30 151 -157 0
107 -30 -157 158 0
107 -30 157 -158 0
107 -30 -65 76 0
107 -30 65 -76 0
107 -30 -76 78 0
107 -30 76 -78 0
107 -30 -78 80 0
107 -30 78 -80 0
107 -30 -80 88 0
107 -30 80 -88 0
107 -30 -88 94 0
107 -30 88 -94 0
107 -30 -94 103 0
107 -30 94 -103 0
107 -30 -103 115 0
107 -30 103 -115 0
107 -30 -115 118 0
107 -30 115 -118 0
107 -30 -118 120 0
107 -30 118 -120 0
107 -30 -120 128 0
107 -30 120 -128 0
107 -30 -128 129 0
107 -30 128 -129 0
107 -30 -129 130 0
107 -30 129 -130 0
107 -30 -130 134 0
107 -30 130 -134 0
107 -30 -134 136 0
107 -30 134 -136 0
107 -30 -136 137 0
107 -30 136 -137 0
107 -30 -137 139 0
107 -30 137 -139 0
107 -30 -139 143 0
107 -30 139 -143 0
107 -30 -143 147 0
107 -30 143 -147 0
107 -30 -147 149 0
107 -30 147 -149 0
107 -30 -149 150 0
107 -30 149 -150 0
107 -30 -150 152 0
107 -30 150 -152 0
107 -30 -152 154 0
107 -30 152 -154 0
107 -30 -154 155 0
107 -30 154 -155 0
107 -30 -155 160 0
107 -30 155 -160 0
107 -30 -160 161 0
107 -30 160 -161 0
107 -30 -59 61 0
107 -30 59 -61 0
107 -30 -61 63 0
107 -30 61 -63 0
107 -30 -63 64 0
107 -30 63 -64 0
107 -30 -64 68 0
107 -30 64 -68 0
107 -30 -68 69 0
107 -30 68 -69 0
107 -30 -69 70 0
107 -30 69 -70 0
107 -30 -70 73 0
107 -30 70 -73 0
107 -30 -73 74 0
107 -30 73 -74 0
107 -30 -74 81 0
107 -30 74 -81 0
107 -30 -81 84 0
107 -30 81 -84 0
107 -30 -84 91 0
107 -30 84 -91 0
107 -30 -91 96 0
107 -30 91 -96 0
107 -30 -96 100 0
107 -30 96 -100 0
107 -30 -100 102 0
107 -30 100 -102 0
107 -30 -102 105 0
107 -30 102 -105 0
107 -30 -105 114 0
107 -30 105 -114 0
107 -30 -114 119 0
107 -30 114 -119 0
107 -30 -119 126 0
107 -30 119 -126 0
107 -30 -126 133 0
107 -30 126 -133 0
107 -30 -133 135 0
107 -30 133 -135 0
107 -30 -135 144 0
107 -30 135 -144 0
107 -30 -144 145 0
107 -30 144 -145 0
107 -30 -145 153 0
107 -30 145 -153 0
107 -30 -153 159 0
107 -30 153 -159 0
107 -30 -159 163 0
107 -30 159 -163 0
107 -30 -60 66 0
107 -30 60 -66 0
107 -30 -66 77 0
107 -30 66 -77 0
107 -30 -77 79 0
107 -30 77 -79 0
107 -30 -79 87 0
107 -30 79 -87 0
107 -30 -87 92 0
107 -30 87 -92 0
107 -30 -92 93 0
107 -30 92 -93 0
107 -30 -93 107 0
107 -30 93 -107 0
107 -30 -107 110 0
107 -30 107 -110 0
107 -30 -110 111 0
107 -30 110 -111 0
107 -30 -111 112 0
107 -30 111 -112 0
107 -30 -112 113 0
107 -30 112 -113 0
107 -30 -113 117 0
107 -30 113 -117 0
107 -30 -117 124 0
107 -30 117 -124 0
107 -30 -124 132 0
107 -30 124 -132 0
107 -30 -132 140 0
107 -30 132 -140 0
107 -30 -140 146 0
107 -30 140 -146 0
107 -30 -146 156 0
107 -30 146 -156 0
107 -30 -156 162 0
107 -30 156 -162 0
107 -31 -58 61 0
107 -31 58 -61 0
107 -31 -61 62 0
107 -31 61 -62 0
107 -31 -62 64 0
107 -31 62 -64 0
107 -31 -64 65 0
107 -31 64 -65 0
107 -31 -65 67 0
107 -31 65 -67 0
107 -31 -67 68 0
107 -31 67 -68 0
107 -31 -68 69 0
107 -31 68 -69 0
107 -31 -69 71 0
107 -31 69 -71 0
107 -31 -71 72 0
107 -31 71 -72 0
107 -31 -72 73 0
107 -31 72 -73 0
107 -31 -73 74 0
107 -31 73 -74 0
107 -31 -74 76 0
107 -31 74 -76 0
107 -31 -76 82 0
107 -31 76 -82 0
107 -31 -82 83 0
107 -31 82 -83 0
107 -31 -83 89 0
107 -31 83 -89 0
107 -31 -89 90 0
107 -31 89 -90 0
107 -31 -90 94 0
107 -31 90 -94 0
107 -31 -94 96 0
107 -31 94 -96 0
107 -31 -96 98 0
107 -31 96 -98 0
107 -31 -98 99 0
107 -31 98 -99 0
107 -31 -99 101 0
107 -31 99 -101 0
107 -31 -101 103 0
107 -31 101 -103 0
107 -31 -103 104 0
107 -31 103 -104 0
107 -31 -104 105 0
107 -31 104 -105 0
107 -31 -105 106 0
107 -31 105 -106 0
107 -31 -106 117 0
107 -31 106 -117 0
107 -31 -117 118 0
107 -31 117 -118 0
107 -31 -118 124 0
107 -31 118 -124 0
107 -31 -124 125 0
107 -31 124 -125 0
107 -31 -125 129 0
107 -31 125 -129 0
107 -31 -129 133 0
107 -31 129 -133 0
107 -31 -133 135 0
107 -31 133 -135 0
107 -31 -135 144 0
107 -31 135 -144 0
107 -31 -144 152 0
107 -31 144 -152 0
107 -31 -152 158 0
107 -31 152 -158 0
107 -31 -158 160 0
107 -31 158 -160 0
107 -31 -84 85 0
107 -31 84 -85 0
107 -31 -85 88 0
107 -31 85 -88 0
107 -31 -88 91 0
107 -31 88 -91 0
107 -31 -91 93 0
107 -31 91 -93 0
107 -31 -93 100 0
107 -31 93 -100 0
107 -31 -100 107 0
107 -31 100 -107 0
107 -31 -107 108 0
107 -31 107 -108 0
107 -31 -108 111 0
107 -31 108 -111 0
107 -31 -111 127 0
107 -31 111 -127 0
107 -31 -127 131 0
107 -31 127 -131 0
107 -31 -131 140 0
107 -31 131 -140 0
107 -31 -140 141 0
107 -31 140 -141 0
107 -31 -141 145 0
107 -31 141 -145 0
107 -31 -145 148 0
107 -31 145 -148 0
107 -31 -148 161 0
107 -31 148 -161 0
107 -31 -161 163 0
107 -31 161 -163 0
107 -31 -70 75 0
107 -31 70 -75 0
107 -31 -75 77 0
107 -31 75 -77 0
107 -31 -77 78 0
107 -31 77 -78 0
107 -31 -78 80 0
107 -31 78 -80 0
107 -31 -80 92 0
107 -31 80 -92 0
107 -31 -92 95 0
107 -31 92 -95 0
107 -31 -95 112 0
107 -31 95 -112 0
107 -31 -112 122 0
107 -31 112 -122 0
107 -31 -122 123 0
107 -31 122 -123 0
107 -31 -123 132 0
107 -31 123 -132 0
107 -31 -132 137 0
107 -31 132 -137 0
107 -31 -137 138 0
107 -31 137 -138 0
107 -31 -138 142 0
107 -31 138 -142 0
107 -31 -142 147 0
107 -31 142 -147 0
107 -31 -147 149 0
107 -31 147 -149 0
107 -31 -149 155 0
107 -31 149 -155 0
107 -31 -155 156 0
107 -31 155 -156 0
107 -31 -156 157 0
107 -31 156 -157 0
107 -31 -157 159 0
107 -31 157 -159 0
107 -31 -159 162 0
107 -31 159 -162 0
107 -31 -59 60 0
107 -31 59 -60 0
107 -31 -60 63 0
107 -31 60 -63 0
107 -31 -63 66 0
107 -31 63 -66 0
107 -31 -66 79 0
107 -31 66 -79 0
107 -31 -79 81 0
107 -31 79 -81 0
107 -31 -81 86 0
107 -31 81 -86 0
107 -31 -86 87 0
107 -31 86 -87 0
107 -31 -87 97 0
107 -31 87 -97 0
107 -31 -97 102 0
107 -31 97 -102 0
107 -31 -102 109 0
107 -31 102 -109 0
107 -31 -109 110 0
107 -31 109 -110 0
107 -31 -110 113 0
107 -31 110 -113 0
107 -31 -113 114 0
107 -31 113 -114 0
107 -31 -114 115 0
107 -31 114 -115 0
107 -31 -115 116 0
107 -31 115 -116 0
107 -31 -116 119 0
107 -31 116 -119 0
107 -31 -119 120 0
107 -31 119 -120 0
107 -31 -120 121 0
107 -31 120 -121 0
107 -31 -121 126 0
107 -31 121 -126 0
107 -31 -126 128 0
107 -31 126 -128 0
107 -31 -128 130 0
107 -31 128 -130 0
107 -31 -130 134 0
107 -31 130 -134 0
107 -31 -134 136 0
107 -31 134 -136 0
107 -31 -136 139 0
107 -31 136 -139 0
107 -31 -139 143 0
107 -31 139 -143 0
107 -31 -143 146 0
107 -31 143 -146 0
107 -31 -146 150 0
107 -31 146 -150 0
107 -31 -150 151 0
107 -31 150 -151 0
107 -31 -151 153 0
107 -31 151 -153 0
107 -31 -153 154 0
107 -31 153 -154 0
107 -32 -62 63 0
107 -32 62 -63 0
107 -32 -63 68 0
107 -32 63 -68 0
107 -32 -68 69 0
107 -32 68 -69 0
107 -32 -69 70 0
107 -32 69 -70 0
107 -32 -70 73 0
107 -32 70 -73 0
107 -32 -73 77 0
107 -32 73 -77 0
107 -32 -77 80 0
107 -32 77 -80 0
107 -32 -80 82 0
107 -32 80 -82 0
107 -32 -82 83 0
107 -32 82 -83 0
107 -32 -83 89 0
107 -32 83 -89 0
107 -32 -89 90 0
107 -32 89 -90 0
107 -32 -90 98 0
107 -32 90 -98 0
107 -32 -98 100 0
107 -32 98 -100 0
107 -32 -100 104 0
107 -32 100 -104 0
107 -32 -104 111 0
107 -32 104 -111 0
107 -32 -111 114 0
107 -32 111 -114 0
107 -32 -114 117 0
107 -32 114 -117 0
107 -32 -117 118 0
107 -32 117 -118 0
107 -32 -118 119 0
107 -32 118 -119 0
107 -32 -119 126 0
107 -32 119 -126 0
107 -32 -126 137 0
107 -32 126 -137 0
107 -32 -137 138 0
107 -32 137 -138 0
107 -32 -138 148 0
107 -32 138 -148 0
107 -32 -148 149 0
107 -32 148 -149 0
107 -32 -149 150 0
107 -32 149 -150 0
107 -32 -150 156 0
107 -32 150 -156 0
107 -32 -156 158 0
107 -32 156 -158 0
107 -32 -158 160 0
107 -32 158 -160 0
107 -32 -160 162 0
107 -32 160 -162 0
107 -32 -162 163 0
107 -32 162 -163 0
107 -32 -66 67 0
107 -32 66 -67 0
107 -32 -67 71 0
107 -32 67 -71 0
107 -32 -71 72 0
107 -32 71 -72 0
107 -32 -72 74 0
107 -32 72 -74 0
107 -32 -74 79 0
107 -32 74 -79 0
107 -32 -79 88 0
107 -32 79 -88 0
107 -32 -88 95 0
107 -32 88 -95 0
107 -32 -95 102 0
107 -32 95 -102 0
107 -32 -102 106 0
107 -32 102 -106 0
107 -32 -106 107 0
107 -32 106 -107 0
107 -32 -107 116 0
107 -32 107 -116 0
107 -32 -116 120 0
107 -32 116 -120 0
107 -32 -120 122 0
107 -32 120 -122 0
107 -32 -122 123 0
107 -32 122 -123 0
107 -32 -123 124 0
107 -32 123 -124 0
107 -32 -124 127 0
107 -32 124 -127 0
107 -32 -127 132 0
107 -32 127 -132 0
107 -32 -132 136 0
107 -32 132 -136 0
107 -32 -136 139 0
107 -32 136 -139 0
107 -32 -139 145 0
107 -32 139 -145 0
107 -32 -145 154 0
107 -32 145 -154 0
107 -32 -58 59 0
107 -32 58 -59 0
107 -32 -59 61 0
107 -32 59 -61 0
107 -32 -61 78 0
107 -32 61 -78 0
107 -32 -78 85 0
107 -32 78 -85 0
107 -32 -85 86 0
107 -32 85 -86 0
107 -32 -86 87 0
107 -32 86 -87 0
107 -32 -87 96 0
107 -32 87 -96 0
107 -32 -96 99 0
107 -32 96 -99 0
107 -32 -99 109 0
107 -32 99 -109 0
107 -32 -109 112 0
107 -32 109 -112 0
107 -32 -112 115 0
107 -32 112 -115 0
107 -32 -115 121 0
107 -32 115 -121 0
107 -32 -121 130 0
107 -32 121 -130 0
107 -32 -130 131 0
107 -32 130 -131 0
107 -32 -131 133 0
107 -32 131 -133 0
107 -32 -133 135 0
107 -32 133 -135 0
107 -32 -135 141 0
107 -32 135 -141 0
107 -32 -141 142 0
107 -32 141 -142 0
107 -32 -142 143 0
107 -32 142 -143 0
107 -32 -143 144 0
107 -32 143 -144 0
107 -32 -144 146 0
107 -32 144 -146 0
107 -32 -146 151 0
107 -32 146 -151 0
107 -32 -151 152 0
107 -32 151 -152 0
107 -32 -152 153 0
107 -32 152 -153 0
107 -32 -153 155 0
107 -32 153 -155 0
107 -32 -155 157 0
107 -32 155 -157 0
107 -32 -157 161 0
107 -32 157 -161 0
107 -32 -60 64 0
107 -32 60 -64 0
107 -32 -64 65 0
107 -32 64 -65 0
107 -32 -65 75 0
107 -32 65 -75 0
107 -32 -75 76 0
107 -32 75 -76 0
107 -32 -76 81 0
107 -32 76 -81 0
107 -32 -81 84 0
107 -32 81 -84 0
107 -32 -84 91 0
107 -32 84 -91 0
107 -32 -91 92 0
107 -32 91 -92 0
107 -32 -92 93 0
107 -32 92 -93 0
107 -32 -93 94 0
107 -32 93 -94 0
107 -32 -94 97 0
107 -32 94 -97 0
107 -32 -97 101 0
107 -32 97 -101 0
107 -32 -101 103 0
107 -32 101 -103 0
107 -32 -103 105 0
107 -32 103 -105 0
107 -32 -105 108 0
107 -32 105 -108 0
107 -32 -108 110 0
107 -32 108 -110 0
107 -32 -110 113 0
107 -32 110 -113 0
107 -32 -113 125 0
107 -32 113 -125 0
107 -32 -125 128 0
107 -32 125 -128 0
107 -32 -128 129 0
107 -32 128 -129 0
107 -32 -129 134 0
107 -32 129 -134 0
107 -32 -134 140 0
107 -32 134 -140 0
107 -32 -140 147 0
107 -32 140 -147 0
107 -32 -147 159 0
107 -32 147 -159 0
107 -33 -65 69 0
107 -33 65 -69 0
107 -33 -69 80 0
107 -33 69 -80 0
107 -33 -80 83 0
107 -33 80 -83 0
107 -33 -83 85 0
107 -33 83 -85 0
107 -33 -85 89 0
107 -33 85 -89 0
107 -33 -89 93 0
107 -33 89 -93 0
107 -33 -93 99 0
107 -33 93 -99 0
107 -33 -99 100 0
107 -33 99 -100 0
107 -33 -100 109 0
107 -33 100 -109 0
107 -33 -109 110 0
107 -33 109 -110 0
107 -33 -110 114 0
107 -33 110 -114 0
107 -33 -114 116 0
107 -33 114 -116 0
107 -33 -116 122 0
107 -33 116 -122 0
107 -33 -122 128 0
107 -33 122 -128 0
107 -33 -128 129 0
107 -33 128 -129 0
107 -33 -129 130 0
107 -33 129 -130 0
107 -33 -130 131 0
107 -33 130 -131 0
107 -33 -131 135 0
107 -33 131 -135 0
107 -33 -135 139 0
107 -33 135 -139 0
107 -33 -139 140 0
107 -33 139 -140 0
107 -33 -140 143 0
107 -33 140 -143 0
107 -33 -143 146 0
107 -33 143 -146 0
107 -33 -146 147 0
107 -33 146 -147 0
107 -33 -62 87 0
107 -33 62 -87 0
107 -33 -87 88 0
107 -33 87 -88 0
107 -33 -88 90 0
107 -33 88 -90 0
107 -33 -90 92 0
107 -33 90 -92 0
107 -33 -92 94 0
107 -33 92 -94 0
107 -33 -94 96 0
107 -33 94 -96 0
107 -33 -96 103 0
107 -33 96 -103 0
107 -33 -103 106 0
107 -33 103 -106 0
107 -33 -106 117 0
107 -33 106 -117 0
107 -33 -117 119 0
107 -33 117 -119 0
107 -33 -119 121 0
107 -33 119 -121 0
107 -33 -121 123 0
107 -33 121 -123 0
107 -33 -123 125 0
107 -33 123 -125 0
107 -33 -125 137 0
107 -33 125 -137 0
107 -33 -137 138 0
107 -33 137 -138 0
107 -33 -138 141 0
107 -33 138 -141 0
107 -33 -141 142 0
107 -33 141 -142 0
107 -33 -142 148 0
107 -33 142 -148 0
107 -33 -148 150 0
107 -33 148 -150 0
107 -33 -150 153 0
107 -33 150 -153 0
107 -33 -153 156 0
107 -33 153 -156 0
107 -33 -156 157 0
107 -33 156 -157 0
107 -33 -157 163 0
107 -33 157 -163 0
107 -33 -64 68 0
107 -33 64 -68 0
107 -33 -68 73 0
107 -33 68 -73 0
107 -33 -73 75 0
107 -33 73 -75 0
107 -33 -75 95 0
107 -33 75 -95 0
107 -33 -95 104 0
107 -33 95 -104 0
107 -33 -104 107 0
107 -33 104 -107 0
107 -33 -107 111 0
107 -33 107 -111 0
107 -33 -111 115 0
107 -33 111 -115 0
107 -33 -115 124 0
107 -33 115 -124 0
107 -33 -124 127 0
107 -33 124 -127 0
107 -33 -127 132 0
107 -33 127 -132 0
107 -33 -132 136 0
107 -33 132 -136 0
107 -33 -136 144 0
107 -33 136 -144 0
107 -33 -144 152 0
107 -33 144 -152 0
107 -33 -152 154 0
107 -33 152 -154 0
107 -33 -154 162 0
107 -33 154 -162 0
107 -33 -58 59 0
107 -33 58 -59 0
107 -33 -59 60 0
107 -33 59 -60 0
107 -33 -60 61 0
107 -33 60 -61 0
107 -33 -61 63 0
107 -33 61 -63 0
107 -33 -63 66 0
107 -33 63 -66 0
107 -33 -66 67 0
107 -33 66 -67 0
107 -33 -67 70 0
107 -33 67 -70 0
107 -33 -70 71 0
107 -33 70 -71 0
107 -33 -71 72 0
107 -33 71 -72 0
107 -33 -72 74 0
107 -33 72 -74 0
107 -33 -74 76 0
107 -33 74 -76 0
107 -33 -76 77 0
107 -33 76 -77 0
107 -33 -77 78 0
107 -33 77 -78 0
107 -33 -78 79 0
107 -33 78 -79 0
107 -33 -79 81 0
107 -33 79 -81 0
107 -33 -81 82 0
107 -33 81 -82 0
107 -33 -82 84 0
107 -33 82 -84 0
107 -33 -84 86 0
107 -33 84 -86 0
107 -33 -86 91 0
107 -33 86 -91 0
107 -33 -91 97 0
107 -33 91 -97 0
107 -33 -97 98 0
107 -33 97 -98 0
107 -33 -98 101 0
107 -33 98 -101 0
107 -33 -101 102 0
107 -33 101 -102 0
107 -33 -102 105 0
107 -33 102 -105 0
107 -33 -105 108 0
107 -33 105 -108 0
107 -33 -108 112 0
107 -33 108 -112 0
107 -33 -112 113 0
107 -33 112 -113 0
107 -33 -113 118 0
107 -33 113 -118 0
107 -33 -118 120 0
107 -33 118 -120 0
107 -33 -120 126 0
107 -33 120 -126 0
107 -33 -126 133 0
107 -33 126 -133 0
107 -33 -133 134 0
107 -33 133 -134 0
107 -33 -134 145 0
107 -33 134 -145 0
107 -33 -145 149 0
107 -33 145 -149 0
107 -33 -149 151 0
107 -33 149 -151 0
107 -33 -151 155 0
107 -33 151 -155 0
107 -33 -155 158 0
107 -33 155 -158 0
107 -33 -158 159 0
107 -33 158 -159 0
107 -33 -159 160 0
107 -33 159 -160 0
107 -33 -160 161 0
107 -33 160 -161 0
107 -34 -58 61 0
107 -34 58 -61 0
107 -34 -61 63 0
107 -34 61 -63 0
107 -34 -63 64 0
107 -34 63 -64 0
107 -34 -64 78 0
107 -34 64 -78 0
107 -34 -78 82 0
107 -34 78 -82 0
107 -34 -82 89 0
107 -34 82 -89 0
107 -34 -89 91 0
107 -34 89 -91 0
107 -34 -91 99 0
107 -34 91 -99 0
107 -34 -99 105 0
107 -34 99 -105 0
107 -34 -105 112 0
107 -34 105 -112 0
107 -34 -112 115 0
107 -34 112 -115 0
107 -34 -115 120 0
107 -34 115 -120 0
107 -34 -120 124 0
107 -34 120 -124 0
107 -34 -124 127 0
107 -34 124 -127 0
107 -34 -127 129 0
107 -34 127 -129 0
107 -34 -129 132 0
107 -34 129 -132 0
107 -34 -132 142 0
107 -34 132 -142 0
107 -34 -142 154 0
107 -34 142 -154 0
107 -34 -59 62 0
107 -34 59 -62 0
107 -34 -62 65 0
107 -34 62 -65 0
107 -34 -65 67 0
107 -34 65 -67 0
107 -34 -67 70 0
107 -34 67 -70 0
107 -34 -70 71 0
107 -34 70 -71 0
107 -34 -71 72 0
107 -34 71 -72 0
107 -34 -72 74 0
107 -34 72 -74 0
107 -34 -74 80 0
107 -34 74 -80 0
107 -34 -80 85 0
107 -34 80 -85 0
107 -34 -85 90 0
107 -34 85 -90 0
107 -34 -90 100 0
107 -34 90 -100 0
107 -34 -100 101 0
107 -34 100 -101 0
107 -34 -101 111 0
107 -34 101 -111 0
107 -34 -111 118 0
107 -34 111 -118 0
107 -34 -118 134 0
107 -34 118 -134 0
107 -34 -134 137 0
107 -34 134 -137 0
107 -34 -137 140 0
107 -34 137 -140 0
107 -34 -140 144 0
107 -34 140 -144 0
107 -34 -144 145 0
107 -34 144 -145 0
107 -34 -145 148 0
107 -34 145 -148 0
107 -34 -148 160 0
107 -34 148 -160 0
107 -34 -66 68 0
107 -34 66 -68 0
107 -34 -68 69 0
107 -34 68 -69 0
107 -34 -69 73 0
107 -34 69 -73 0
107 -34 -73 79 0
107 -34 73 -79 0
107 -34 -79 81 0
107 -34 79 -81 0
107 -34 -81 83 0
107 -34 81 -83 0
107 -34 -83 86 0
107 -34 83 -86 0
107 -34 -86 94 0
107 -34 86 -94 0
107 -34 -94 95 0
107 -34 94 -95 0
107 -34 -95 107 0
107 -34 95 -107 0
107 -34 -107 114 0
107 -34 107 -114 0
107 -34 -114 116 0
107 -34 114 -116 0
107 -34 -116 117 0
107 -34 116 -117 0
107 -34 -117 119 0
107 -34 117 -119 0
107 -34 -119 121 0
107 -34 119 -121 0
107 -34 -121 128 0
107 -34 121 -128 0
107 -34 -128 130 0
107 -34 128 -130 0
107 -34 -130 133 0
107 -34 130 -133 0
107 -34 -133 135 0
107 -34 133 -135 0
107 -34 -135 139 0
107 -34 135 -139 0
107 -34 -139 149 0
107 -34 139 -149 0
107 -34 -149 150 0
107 -34 149 -150 0
107 -34 -150 155 0
107 -34 150 -155 0
107 -34 -155 158 0
107 -34 155 -158 0
107 -34 -158 162 0
107 -34 158 -162 0
107 -34 -60 75 0
107 -34 60 -75 0
107 -34 -75 76 0
107 -34 75 -76 0
107 -34 -76 77 0
107 -34 76 -77 0
107 -34 -77 84 0
107 -34 77 -84 0
107 -34 -84 87 0
107 -34 84 -87 0
107 -34 -87 88 0
107 -34 87 -88 0
107 -34 -88 92 0
107 -34 88 -92 0
107 -34 -92 93 0
107 -34 92 -93 0
107 -34 -93 96 0
107 -34 93 -96 0
107 -34 -96 97 0
107 -34 96 -97 0
107 -34 -97 98 0
107 -34 97 -98 0
107 -34 -98 102 0
107 -34 98 -102 0
107 -34 -102 103 0
107 -34 102 -103 0
107 -34 -103 104 0
107 -34 103 -104 0
107 -34 -104 106 0
107 -34 104 -106 0
107 -34 -106 108 0
107 -34 106 -108 0
107 -34 -108 109 0
107 -34 108 -109 0
107 -34 -109 110 0
107 -34 109 -110 0
107 -34 -110 113 0
107 -34 110 -113 0
107 -34 -113 122 0
107 -34 113 -122 0
107 -34 -122 123 0
107 -34 122 -123 0
107 -34 -123 125 0
107 -34 123 -125 0
107 -34 -125 126 0
107 -34 125 -126 0
107 -34 -126 131 0
107 -34 126 -131 0
107 -34 -131 136 0
107 -34 131 -136 0
107 -34 -136 138 0
107 -34 136 -138 0
107 -34 -138 141 0
107 -34 138 -141 0
107 -34 -141 143 0
107 -34 141 -143 0
107 -34 -143 146 0
107 -34 143 -146 0
107 -34 -146 147 0
107 -34 146 -147 0
107 -34 -147 151 0
107 -34 147 -151 0
107 -34 -151 152 0
107 -34 151 -152 0
107 -34 -152 153 0
107 -34 152 -153 0
107 -34 -153 156 0
107 -34 153 -156 0
107 -34 -156 157 0
107 -34 156 -157 0
107 -34 -157 159 0
107 -34 157 -159 0
107 -34 -159 161 0
107 -34 159 -161 0
107 -34 -161 163 0
107 -34 161 -163 0
107 -35 -62 63 0
107 -35 62 -63 0
107 -35 -63 65 0
107 -35 63 -65 0
107 -35 -65 75 0
107 -35 65 -75 0
107 -35 -75 77 0
107 -35 75 -77 0
107 -35 -77 83 0
107 -35 77 -83 0
107 -35 -83 84 0
107 -35 83 -84 0
107 -35 -84 93 0
107 -35 84 -93 0
107 -35 -93 98 0
107 -35 93 -98 0
107 -35 -98 99 0
107 -35 98 -99 0
107 -35 -99 105 0
107 -35 99 -105 0
107 -35 -105 106 0
107 -35 105 -106 0
107 -35 -106 109 0
107 -35 106 -109 0
107 -35 -109 115 0
107 -35 109 -115 0
107 -35 -115 118 0
107 -35 115 -118 0
107 -35 -118 120 0
107 -35 118 -120 0
107 -35 -120 126 0
107 -35 120 -126 0
107 -35 -126 127 0
107 -35 126 -127 0
107 -35 -127 128 0
107 -35 127 -128 0
107 -35 -128 129 0
107 -35 128 -129 0
107 -35 -129 131 0
107 -35 129 -131 0
107 -35 -131 135 0
107 -35 131 -135 0
107 -35 -135 143 0
107 -35 135 -143 0
107 -35 -143 145 0
107 -35 143 -145 0
107 -35 -145 151 0
107 -35 145 -151 0
107 -35 -151 157 0
107 -35 151 -157 0
107 -35 -157 161 0
107 -35 157 -161 0
107 -35 -64 67 0
107 -35 64 -67 0
107 -35 -67 68 0
107 -35 67 -68 0
107 -35 -68 69 0
107 -35 68 -69 0
107 -35 -69 70 0
107 -35 69 -70 0
107 -35 -70 71 0
107 -35 70 -71 0
107 -35 -71 72 0
107 -35 71 -72 0
107 -35 -72 73 0
107 -35 72 -73 0
107 -35 -73 74 0
107 -35 73 -74 0
107 -35 -74 82 0
107 -35 74 -82 0
107 -35 -82 88 0
107 -35 82 -88 0
107 -35 -88 90 0
107 -35 88 -90 0
107 -35 -90 92 0
107 -35 90 -92 0
107 -35 -92 94 0
107 -35 92 -94 0
107 -35 -94 107 0
107 -35 94 -107 0
107 -35 -107 110 0
107 -35 107 -110 0
107 -35 -110 114 0
107 -35 110 -114 0
107 -35 -114 116 0
107 -35 114 -116 0
107 -35 -116 117 0
107 -35 116 -117 0
107 -35 -117 119 0
107 -35 117 -119 0
107 -35 -119 125 0
107 -35 119 -125 0
107 -35 -125 133 0
107 -35 125 -133 0
107 -35 -133 149 0
107 -35 133 -149 0
107 -35 -149 154 0
107 -35 149 -154 0
107 -35 -154 156 0
107 -35 154 -156 0
107 -35 -156 158 0
107 -35 156 -158 0
107 -35 -158 163 0
107 -35 158 -163 0
107 -35 -59 60 0
107 -35 59 -60 0
107 -35 -60 61 0
107 -35 60 -61 0
107 -35 -61 76 0
107 -35 61 -76 0
107 -35 -76 79 0
107 -35 76 -79 0
107 -35 -79 85 0
107 -35 79 -85 0
107 -35 -85 87 0
107 -35 85 -87 0
107 -35 -87 89 0
107 -35 87 -89 0
107 -35 -89 96 0
107 -35 89 -96 0
107 -35 -96 97 0
107 -35 96 -97 0
107 -35 -97 101 0
107 -35 97 -101 0
107 -35 -101 102 0
107 -35 101 -102 0
107 -35 -102 104 0
107 -35 102 -104 0
107 -35 -104 108 0
107 -35 104 -108 0
107 -35 -108 113 0
107 -35 108 -113 0
107 -35 -113 132 0
107 -35 113 -132 0
107 -35 -132 136 0
107 -35 132 -136 0
107 -35 -136 137 0
107 -35 136 -137 0
107 -35 -137 138 0
107 -35 137 -138 0
107 -35 -138 139 0
107 -35 138 -139 0
107 -35 -139 140 0
107 -35 139 -140 0
107 -35 -140 141 0
107 -35 140 -141 0
107 -35 -141 150 0
107 -35 141 -150 0
107 -35 -150 152 0
107 -35 150 -152 0
107 -35 -152 162 0
107 -35 152 -162 0
107 -35 -58 66 0
107 -35 58 -66 0
107 -35 -66 78 0
107 -35 66 -78 0
107 -35 -78 80 0
107 -35 78 -80 0
107 -35 -80 81 0
107 -35 80 -81 0
107 -35 -81 86 0
107 -35 81 -86 0
107 -35 -86 91 0
107 -35 86 -91 0
107 -35 -91 95 0
107 -35 91 -95 0
107 -35 -95 100 0
107 -35 95 -100 0
107 -35 -100 103 0
107 -35 100 -103 0
107 -35 -103 111 0
107 -35 103 -111 0
107 -35 -111 112 0
107 -35 111 -112 0
107 -35 -112 121 0
107 -35 112 -121 0
107 -35 -121 122 0
107 -35 121 -122 0
107 -35 -122 123 0
107 -35 122 -123 0
107 -35 -123 124 0
107 -35 123 -124 0
107 -35 -124 130 0
107 -35 124 -130 0
107 -35 -130 134 0
107 -35 130 -134 0
107 -35 -134 142 0
107 -35 134 -142 0
107 -35 -142 144 0
107 -35 142 -144 0
107 -35 -144 146 0
107 -35 144 -146 0
107 -35 -146 147 0
107 -35 146 -147 0
107 -35 -147 148 0
107 -35 147 -148 0
107 -35 -148 153 0
107 -35 148 -153 0
107 -35 -153 155 0
107 -35 153 -155 0
107 -35 -155 159 0
107 -35 155 -159 0
107 -35 -159 160 0
107 -35 159 -160 0
107 -36 -61 63 0
107 -36 61 -63 0
107 -36 -63 75 0
107 -36 63 -75 0
107 -36 -75 76 0
107 -36 75 -76 0
107 -36 -76 80 0
107 -36 76 -80 0
107 -36 -80 85 0
107 -36 80 -85 0
107 -36 -85 86 0
107 -36 85 -86 0
107 -36 -86 88 0
107 -36 86 -88 0
107 -36 -88 89 0
107 -36 88 -89 0
107 -36 -89 91 0
107 -36 89 -91 0
107 -36 -91 98 0
107 -36 91 -98 0
107 -36 -98 99 0
107 -36 98 -99 0
107 -36 -99 119 0
107 -36 99 -119 0
107 -36 -119 120 0
107 -36 119 -120 0
107 -36 -120 137 0
107 -36 120 -137 0
107 -36 -137 139 0
107 -36 137 -139 0
107 -36 -139 142 0
107 -36 139 -142 0
107 -36 -142 144 0
107 -36 142 -144 0
107 -36 -144 149 0
107 -36 144 -149 0
107 -36 -149 151 0
107 -36 149 -151 0
107 -36 -151 154 0
107 -36 151 -154 0
107 -36 -154 163 0
107 -36 154 -163 0
107 -36 -62 67 0
107 -36 62 -67 0
107 -36 -67 70 0
107 -36 67 -70 0
107 -36 -70 71 0
107 -36 70 -71 0
107 -36 -71 72 0
107 -36 71 -72 0
107 -36 -72 74 0
107 -36 72 -74 0
107 -36 -74 79 0
107 -36 74 -79 0
107 -36 -79 84 0
107 -36 79 -84 0
107 -36 -84 92 0
107 -36 84 -92 0
107 -36 -92 93 0
107 -36 92 -93 0
107 -36 -93 94 0
107 -36 93 -94 0
107 -36 -94 100 0
107 -36 94 -100 0
107 -36 -100 110 0
107 -36 100 -110 0
107 -36 -110 113 0
107 -36 110 -113 0
107 -36 -113 116 0
107 -36 113 -116 0
107 -36 -116 126 0
107 -36 116 -126 0
107 -36 -126 132 0
107 -36 126 -132 0
107 -36 -132 138 0
107 -36 132 -138 0
107 -36 -138 143 0
107 -36 138 -143 0
107 -36 -143 147 0
107 -36 143 -147 0
107 -36 -147 148 0
107 -36 147 -148 0
107 -36 -148 152 0
107 -36 148 -152 0
107 -36 -152 160 0
107 -36 152 -160 0
107 -36 -160 161 0
107 -36 160 -161 0
107 -36 -58 64 0
107 -36 58 -64 0
107 -36 -64 65 0
107 -36 64 -65 0
107 -36 -65 66 0
107 -36 65 -66 0
107 -36 -66 68 0
107 -36 66 -68 0
107 -36 -68 69 0
107 -36 68 -69 0
107 -36 -69 73 0
107 -36 69 -73 0
107 -36 -73 78 0
107 -36 73 -78 0
107 -36 -78 95 0
107 -36 78 -95 0
107 -36 -95 96 0
107 -36 95 -96 0
107 -36 -96 101 0
107 -36 96 -101 0
107 -36 -101 104 0
107 -36 101 -104 0
107 -36 -104 111 0
107 -36 104 -111 0
107 -36 -111 115 0
107 -36 111 -115 0
107 -36 -115 118 0
107 -36 115 -118 0
107 -36 -118 123 0
107 -36 118 -123 0
107 -36 -123 124 0
107 -36 123 -124 0
107 -36 -124 125 0
107 -36 124 -125 0
107 -36 -125 127 0
107 -36 125 -127 0
107 -36 -127 128 0
107 -36 127 -128 0
107 -36 -128 130 0
107 -36 128 -130 0
107 -36 -130 136 0
107 -36 130 -136 0
107 -36 -136 141 0
107 -36 136 -141 0
107 -36 -141 145 0
107 -36 141 -145 0
107 -36 -145 157 0
107 -36 145 -157 0
107 -36 -157 162 0
107 -36 157 -162 0
107 -36 -59 60 0
107 -36 59 -60 0
107 -36 -60 77 0
107 -36 60 -77 0
107 -36 -77 81 0
107 -36 77 -81 0
107 -36 -81 82 0
107 -36 81 -82 0
107 -36 -82 83 0
107 -36 82 -83 0
107 -36 -83 87 0
107 -36 83 -87 0
107 -36 -87 90 0
107 -36 87 -90 0
107 -36 -90 97 0
107 -36 90 -97 0
107 -36 -97 102 0
107 -36 97 -102 0
107 -36 -102 103 0
107 -36 102 -103 0
107 -36 -103 105 0
107 -36 103 -105 0
107 -36 -105 106 0
107 -36 105 -106 0
107 -36 -106 107 0
107 -36 106 -107 0
107 -36 -107 108 0
107 -36 107 -108 0
107 -36 -108 109 0
107 -36 108 -109 0
107 -36 -109 112 0
107 -36 109 -112 0
107 -36 -112 114 0
107 -36 112 -114 0
107 -36 -114 117 0
107 -36 114 -117 0
107 -36 -117 121 0
107 -36 117 -121 0
107 -36 -121 122 0
107 -36 121 -122 0
107 -36 -122 129 0
107 -36 122 -129 0
107 -36 -129 131 0
107 -36 129 -131 0
107 -36 -131 133 0
107 -36 131 -133 0
107 -36 -133 134 0
107 -36 133 -134 0
107 -36 -134 135 0
107 -36 134 -135 0
107 -36 -135 140 0
107 -36 135 -140 0
107 -36 -140 146 0
107 -36 140 -146 0
107 -36 -146 150 0
107 -36 146 -150 0
107 -36 -150 153 0
107 -36 150 -153 0
107 -36 -153 155 0
107 -36 153 -155 0
107 -36 -155 156 0
107 -36 155 -156 0
107 -36 -156 158 0
107 -36 156 -158 0
107 -36 -158 159 0
107 -36 158 -159 0
107 -37 -77 81 0
107 -37 77 -81 0
107 -37 -81 87 0
107 -37 81 -87 0
107 -37 -87 91 0
107 -37 87 -91 0
107 -37 -91 92 0
107 -37 91 -92 0
107 -37 -92 110 0
107 -37 92 -110 0
107 -37 -110 112 0
107 -37 110 -112 0
107 -37 -112 114 0
107 -37 112 -114 0
107 -37 -114 116 0
107 -37 114 -116 0
107 -37 -116 117 0
107 -37 116 -117 0
107 -37 -117 118 0
107 -37 117 -118 0
107 -37 -118 124 0
107 -37 118 -124 0
107 -37 -124 128 0
107 -37 124 -128 0
107 -37 -128 136 0
107 -37 128 -136 0
107 -37 -136 137 0
107 -37 136 -137 0
107 -37 -137 141 0
107 -37 137 -141 0
107 -37 -141 142 0
107 -37 141 -142 0
107 -37 -142 148 0
107 -37 142 -148 0
107 -37 -148 154 0
107 -37 148 -154 0
107 -37 -154 157 0
107 -37 154 -157 0
107 -37 -64 79 0
107 -37 64 -79 0
107 -37 -79 90 0
107 -37 79 -90 0
107 -37 -90 94 0
107 -37 90 -94 0
107 -37 -94 96 0
107 -37 94 -96 0
107 -37 -96 97 0
107 -37 96 -97 0
107 -37 -97 98 0
107 -37 97 -98 0
107 -37 -98 99 0
107 -37 98 -99 0
107 -37 -99 107 0
107 -37 99 -107 0
107 -37 -107 119 0
107 -37 107 -119 0
107 -37 -119 120 0
107 -37 119 -120 0
107 -37 -120 121 0
107 -37 120 -121 0
107 -37 -121 127 0
107 -37 121 -127 0
107 -37 -127 130 0
107 -37 127 -130 0
107 -37 -130 132 0
107 -37 130 -132 0
107 -37 -132 138 0
107 -37 132 -138 0
107 -37 -138 153 0
107 -37 138 -153 0
107 -37 -63 78 0
107 -37 63 -78 0
107 -37 -78 80 0
107 -37 78 -80 0
107 -37 -80 84 0
107 -37 80 -84 0
107 -37 -84 85 0
107 -37 84 -85 0
107 -37 -85 89 0
107 -37 85 -89 0
107 -37 -89 93 0
107 -37 89 -93 0
107 -37 -93 102 0
107 -37 93 -102 0
107 -37 -102 103 0
107 -37 102 -103 0
107 -37 -103 105 0
107 -37 103 -105 0
107 -37 -105 106 0
107 -37 105 -106 0
107 -37 -106 108 0
107 -37 106 -108 0
107 -37 -108 109 0
107 -37 108 -109 0
107 -37 -109 115 0
107 -37 109 -115 0
107 -37 -115 129 0
107 -37 115 -129 0
107 -37 -129 131 0
107 -37 129 -131 0
107 -37 -131 134 0
107 -37 131 -134 0
107 -37 -134 135 0
107 -37 134 -135 0
107 -37 -135 143 0
107 -37 135 -143 0
107 -37 -143 144 0
107 -37 143 -144 0
107 -37 -144 145 0
107 -37 144 -145 0
107 -37 -145 149 0
107 -37 145 -149 0
107 -37 -149 150 0
107 -37 149 -150 0
107 -37 -150 152 0
107 -37 150 -152 0
107 -37 -152 156 0
107 -37 152 -156 0
107 -37 -156 160 0
107 -37 156 -160 0
107 -37 -58 59 0
107 -37 58 -59 0
107 -37 -59 60 0
107 -37 59 -60 0
107 -37 -60 61 0
107 -37 60 -61 0
107 -37 -61 62 0
107 -37 61 -62 0
107 -37 -62 65 0
107 -37 62 -65 0
107 -37 -65 66 0
107 -37 65 -66 0
107 -37 -66 67 0
107 -37 66 -67 0
107 -37 -67 68 0
107 -37 67 -68 0
107 -37 -68 69 0
107 -37 68 -69 0
107 -37 -69 70 0
107 -37 69 -70 0
107 -37 -70 71 0
107 -37 70 -71 0
107 -37 -71 72 0
107 -37 71 -72 0
107 -37 -72 73 0
107 -37 72 -73 0
107 -37 -73 74 0
107 -37 73 -74 0
107 -37 -74 75 0
107 -37 74 -75 0
107 -37 -75 76 0
107 -37 75 -76 0
107 -37 -76 82 0
107 -37 76 -82 0
107 -37 -82 83 0
107 -37 82 -83 0
107 -37 -83 86 0
107 -37 83 -86 0
107 -37 -86 88 0
107 -37 86 -88 0
107 -37 -88 95 0
107 -37 88 -95 0
107 -37 -95 100 0
107 -37 95 -100 0
107 -37 -100 101 0
107 -37 100 -101 0
107 -37 -101 104 0
107 -37 101 -104 0
107 -37 -104 111 0
107 -37 104 -111 0
107 -37 -111 113 0
107 -37 111 -113 0
107 -37 -113 122 0
107 -37 113 -122 0
107 -37 -122 123 0
107 -37 122 -123 0
107 -37 -123 125 0
107 -37 123 -125 0
107 -37 -125 126 0
107 -37 125 -126 0
107 -37 -126 133 0
107 -37 126 -133 0
107 -37 -133 139 0
107 -37 133 -139 0
107 -37 -139 140 0
107 -37 139 -140 0
107 -37 -140 146 0
107 -37 140 -146 0
107 -37 -146 147 0
107 -37 146 -147 0
107 -37 -147 151 0
107 -37 147 -151 0
107 -37 -151 155 0
107 -37 151 -155 0
107 -37 -155 158 0
107 -37 155 -158 0
107 -37 -158 159 0
107 -37 158 -159 0
107 -37 -159 161 0
107 -37 159 -161 0
107 -37 -161 162 0
107 -37 161 -162 0
107 -37 -162 163 0
107 -37 162 -163 0
107 -38 -58 59 0
107 -38 58 -59 0
107 -38 -59 60 0
107 -38 59 -60 0
107 -38 -60 62 0
107 -38 60 -62 0
107 -38 -62 63 0
107 -38 62 -63 0
107 -38 -63 64 0
107 -38 63 -64 0
107 -38 -64 65 0
107 -38 64 -65 0
107 -38 -65 66 0
107 -38 65 -66 0
107 -38 -66 67 0
107 -38 66 -67 0
107 -38 -67 68 0
107 -38 67 -68 0
107 -38 -68 69 0
107 -38 68 -69 0
107 -38 -69 70 0
107 -38 69 -70 0
107 -38 -70 71 0
107 -38 70 -71 0
107 -38 -71 72 0
107 -38 71 -72 0
107 -38 -72 73 0
107 -38 72 -73 0
107 -38 -73 74 0
107 -38 73 -74 0
107 -38 -74 75 0
107 -38 74 -75 0
107 -38 -75 76 0
107 -38 75 -76 0
107 -38 -76 114 0
107 -38 76 -114 0
107 -38 -114 116 0
107 -38 114 -116 0
107 -38 -116 121 0
107 -38 116 -121 0
107 -38 -121 131 0
107 -38 121 -131 0
107 -38 -131 140 0
107 -38 131 -140 0
107 -38 -140 141 0
107 -38 140 -141 0
107 -38 -141 144 0
107 -38 141 -144 0
107 -38 -144 145 0
107 -38 144 -145 0
107 -38 -145 152 0
107 -38 145 -152 0
107 -38 -78 81 0
107 -38 78 -81 0
107 -38 -81 93 0
107 -38 81 -93 0
107 -38 -93 98 0
107 -38 93 -98 0
107 -38 -98 100 0
107 -38 98 -100 0
107 -38 -100 109 0
107 -38 100 -109 0
107 -38 -109 112 0
107 -38 109 -112 0
107 -38 -112 117 0
107 -38 112 -117 0
107 -38 -117 118 0
107 -38 117 -118 0
107 -38 -118 119 0
107 -38 118 -119 0
107 -38 -119 123 0
107 -38 119 -123 0
107 -38 -123 129 0
107 -38 123 -129 0
107 -38 -129 133 0
107 -38 129 -133 0
107 -38 -133 135 0
107 -38 133 -135 0
107 -38 -135 142 0
107 -38 135 -142 0
107 -38 -142 146 0
107 -38 142 -146 0
107 -38 -146 147 0
107 -38 146 -147 0
107 -38 -147 149 0
107 -38 147 -149 0
107 -38 -149 151 0
107 -38 149 -151 0
107 -38 -151 154 0
107 -38 151 -154 0
107 -38 -154 157 0
107 -38 154 -157 0
107 -38 -61 77 0
107 -38 61 -77 0
107 -38 -77 79 0
107 -38 77 -79 0
107 -38 -79 91 0
107 -38 79 -91 0
107 -38 -91 101 0
107 -38 91 -101 0
107 -38 -101 105 0
107 -38 101 -105 0
107 -38 -105 106 0
107 -38 105 -106 0
107 -38 -106 107 0
107 -38 106 -107 0
107 -38 -107 110 0
107 -38 107 -110 0
107 -38 -110 111 0
107 -38 110 -111 0
107 -38 -111 113 0
107 -38 111 -113 0
107 -38 -113 120 0
107 -38 113 -120 0
107 -38 -120 122 0
107 -38 120 -122 0
107 -38 -122 124 0
107 -38 122 -124 0
107 -38 -124 125 0
107 -38 124 -125 0
107 -38 -125 126 0
107 -38 125 -126 0
107 -38 -126 127 0
107 -38 126 -127 0
107 -38 -127 128 0
107 -38 127 -128 0
107 -38 -128 137 0
107 -38 128 -137 0
107 -38 -137 138 0
107 -38 137 -138 0
107 -38 -138 143 0
107 -38 138 -143 0
107 -38 -143 148 0
107 -38 143 -148 0
107 -38 -148 150 0
107 -38 148 -150 0
107 -38 -150 156 0
107 -38 150 -156 0
107 -38 -156 159 0
107 -38 156 -159 0
107 -38 -159 161 0
107 -38 159 -161 0
107 -38 -80 82 0
107 -38 80 -82 0
107 -38 -82 83 0
107 -38 82 -83 0
107 -38 -83 84 0
107 -38 83 -84 0
107 -38 -84 85 0
107 -38 84 -85 0
107 -38 -85 86 0
107 -38 85 -86 0
107 -38 -86 87 0
107 -38 86 -87 0
107 -38 -87 88 0
107 -38 87 -88 0
107 -38 -88 89 0
107 -38 88 -89 0
107 -38 -89 90 0
107 -38 89 -90 0
107 -38 -90 92 0
107 -38 90 -92 0
107 -38 -92 94 0
107 -38 92 -94 0
107 -38 -94 95 0
107 -38 94 -95 0
107 -38 -95 96 0
107 -38 95 -96 0
107 -38 -96 97 0
107 -38 96 -97 0
107 -38 -97 99 0
107 -38 97 -99 0
107 -38 -99 102 0
107 -38 99 -102 0
107 -38 -102 103 0
107 -38 102 -103 0
107 -38 -103 104 0
107 -38 103 -104 0
107 -38 -104 108 0
107 -38 104 -108 0
107 -38 -108 115 0
107 -38 108 -115 0
107 -38 -115 130 0
107 -38 115 -130 0
107 -38 -130 132 0
107 -38 130 -132 0
107 -38 -132 134 0
107 -38 132 -134 0
107 -38 -134 136 0
107 -38 134 -136 0
107 -38 -136 139 0
107 -38 136 -139 0
107 -38 -139 153 0
107 -38 139 -153 0
107 -38 -153 155 0
107 -38 153 -155 0
107 -38 -155 158 0
107 -38 155 -158 0
107 -38 -158 160 0
107 -38 158 -160 0
107 -38 -160 162 0
107 -38 160 -162 0
107 -38 -162 163 0
107 -38 162 -163 0
107 -39 -63 66 0
107 -39 63 -66 0
107 -39 -66 69 0
107 -39 66 -69 0
107 -39 -69 75 0
107 -39 69 -75 0
107 -39 -75 77 0
107 -39 75 -77 0
107 -39 -77 78 0
107 -39 77 -78 0
107 -39 -78 79 0
107 -39 78 -79 0
107 -39 -79 81 0
107 -39 79 -81 0
107 -39 -81 82 0
107 -39 81 -82 0
107 -39 -82 83 0
107 -39 82 -83 0
107 -39 -83 84 0
107 -39 83 -84 0
107 -39 -84 85 0
107 -39 84 -85 0
107 -39 -85 86 0
107 -39 85 -86 0
107 -39 -86 87 0
107 -39 86 -87 0
107 -39 -87 89 0
107 -39 87 -89 0
107 -39 -89 90 0
107 -39 89 -90 0
107 -39 -90 91 0
107 -39 90 -91 0
107 -39 -91 92 0
107 -39 91 -92 0
107 -39 -92 93 0
107 -39 92 -93 0
107 -39 -93 94 0
107 -39 93 -94 0
107 -39 -94 95 0
107 -39 94 -95 0
107 -39 -95 96 0
107 -39 95 -96 0
107 -39 -96 97 0
107 -39 96 -97 0
107 -39 -97 108 0
107 -39 97 -108 0
107 -39 -108 111 0
107 -39 108 -111 0
107 -39 -111 113 0
107 -39 111 -113 0
107 -39 -113 119 0
107 -39 113 -119 0
107 -39 -119 124 0
107 -39 119 -124 0
107 -39 -124 127 0
107 -39 124 -127 0
107 -39 -127 131 0
107 -39 127 -131 0
107 -39 -131 134 0
107 -39 131 -134 0
107 -39 -134 140 0
107 -39 134 -140 0
107 -39 -140 147 0
107 -39 140 -147 0
107 -39 -147 163 0
107 -39 147 -163 0
107 -39 -59 88 0
107 -39 59 -88 0
107 -39 -88 98 0
107 -39 88 -98 0
107 -39 -98 105 0
107 -39 98 -105 0
107 -39 -105 114 0
107 -39 105 -114 0
107 -39 -114 116 0
107 -39 114 -116 0
107 -39 -116 118 0
107 -39 116 -118 0
107 -39 -118 121 0
107 -39 118 -121 0
107 -39 -121 123 0
107 -39 121 -123 0
107 -39 -123 128 0
107 -39 123 -128 0
107 -39 -128 133 0
107 -39 128 -133 0
107 -39 -133 135 0
107 -39 133 -135 0
107 -39 -135 137 0
107 -39 135 -137 0
107 -39 -137 138 0
107 -39 137 -138 0
107 -39 -138 139 0
107 -39 138 -139 0
107 -39 -139 143 0
107 -39 139 -143 0
107 -39 -143 144 0
107 -39 143 -144 0
107 -39 -144 146 0
107 -39 144 -146 0
107 -39 -146 158 0
107 -39 146 -158 0
107 -39 -158 159 0
107 -39 158 -159 0
107 -39 -62 115 0
107 -39 62 -115 0
107 -39 -115 120 0
107 -39 115 -120 0
107 -39 -120 122 0
107 -39 120 -122 0
107 -39 -122 125 0
107 -39 122 -125 0
107 -39 -125 136 0
107 -39 125 -136 0
107 -39 -136 141 0
107 -39 136 -141 0
107 -39 -141 142 0
107 -39 141 -142 0
107 -39 -142 148 0
107 -39 142 -148 0
107 -39 -148 149 0
107 -39 148 -149 0
107 -39 -149 150 0
107 -39 149 -150 0
107 -39 -150 151 0
107 -39 150 -151 0
107 -39 -151 152 0
107 -39 151 -152 0
107 -39 -152 155 0
107 -39 152 -155 0
107 -39 -155 157 0
107 -39 155 -157 0
107 -39 -157 160 0
107 -39 157 -160 0
107 -39 -160 161 0
107 -39 160 -161 0
107 -39 -58 60 0
107 -39 58 -60 0
107 -39 -60 61 0
107 -39 60 -61 0
107 -39 -61 64 0
107 -39 61 -64 0
107 -39 -64 65 0
107 -39 64 -65 0
107 -39 -65 67 0
107 -39 65 -67 0
107 -39 -67 68 0
107 -39 67 -68 0
107 -39 -68 70 0
107 -39 68 -70 0
107 -39 -70 71 0
107 -39 70 -71 0
107 -39 -71 72 0
107 -39 71 -72 0
107 -39 -72 73 0
107 -39 72 -73 0
107 -39 -73 74 0
107 -39 73 -74 0
107 -39 -74 76 0
107 -39 74 -76 0
107 -39 -76 80 0
107 -39 76 -80 0
107 -39 -80 99 0
107 -39 80 -99 0
107 -39 -99 100 0
107 -39 99 -100 0
107 -39 -100 101 0
107 -39 100 -101 0
107 -39 -101 102 0
107 -39 101 -102 0
107 -39 -102 103 0
107 -39 102 -103 0
107 -39 -103 104 0
107 -39 103 -104 0
107 -39 -104 106 0
107 -39 104 -106 0
107 -39 -106 107 0
107 -39 106 -107 0
107 -39 -107 109 0
107 -39 107 -109 0
107 -39 -109 110 0
107 -39 109 -110 0
107 -39 -110 112 0
107 -39 110 -112 0
107 -39 -112 117 0
107 -39 112 -117 0
107 -39 -117 126 0
107 -39 117 -126 0
107 -39 -126 129 0
107 -39 126 -129 0
107 -39 -129 130 0
107 -39 129 -130 0
107 -39 -130 132 0
107 -39 130 -132 0
107 -39 -132 145 0
107 -39 132 -145 0
107 -39 -145 153 0
107 -39 145 -153 0
107 -39 -153 154 0
107 -39 153 -154 0
107 -39 -154 156 0
107 -39 154 -156 0
107 -39 -156 162 0
107 -39 156 -162 0
107 -40 -58 59 0
107 -40 58 -59 0
107 -40 -59 62 0
107 -40 59 -62 0
107 -40 -62 63 0
107 -40 62 -63 0
107 -40 -63 64 0
107 -40 63 -64 0
107 -40 -64 65 0
107 -40 64 -65 0
107 -40 -65 66 0
107 -40 65 -66 0
107 -40 -66 67 0
107 -40 66 -67 0
107 -40 -67 70 0
107 -40 67 -70 0
107 -40 -70 71 0
107 -40 70 -71 0
107 -40 -71 72 0
107 -40 71 -72 0
107 -40 -72 74 0
107 -40 72 -74 0
107 -40 -74 80 0
107 -40 74 -80 0
107 -40 -80 81 0
107 -40 80 -81 0
107 -40 -81 82 0
107 -40 81 -82 0
107 -40 -82 85 0
107 -40 82 -85 0
107 -40 -85 89 0
107 -40 85 -89 0
107 -40 -89 94 0
107 -40 89 -94 0
107 -40 -94 98 0
107 -40 94 -98 0
107 -40 -98 99 0
107 -40 98 -99 0
107 -40 -99 100 0
107 -40 99 -100 0
107 -40 -100 101 0
107 -40 100 -101 0
107 -40 -101 102 0
107 -40 101 -102 0
107 -40 -102 103 0
107 -40 102 -103 0
107 -40 -103 104 0
107 -40 103 -104 0
107 -40 -104 105 0
107 -40 104 -105 0
107 -40 -105 106 0
107 -40 105 -106 0
107 -40 -106 107 0
107 -40 106 -107 0
107 -40 -107 108 0
107 -40 107 -108 0
107 -40 -108 109 0
107 -40 108 -109 0
107 -40 -109 110 0
107 -40 109 -110 0
107 -40 -110 111 0
107 -40 110 -111 0
107 -40 -111 113 0
107 -40 111 -113 0
107 -40 -113 115 0
107 -40 113 -115 0
107 -40 -115 116 0
107 -40 115 -116 0
107 -40 -116 117 0
107 -40 116 -117 0
107 -40 -117 125 0
107 -40 117 -125 0
107 -40 -125 128 0
107 -40 125 -128 0
107 -40 -128 135 0
107 -40 128 -135 0
107 -40 -135 139 0
107 -40 135 -139 0
107 -40 -139 146 0
107 -40 139 -146 0
107 -40 -146 147 0
107 -40 146 -147 0
107 -40 -147 153 0
107 -40 147 -153 0
107 -40 -153 156 0
107 -40 153 -156 0
107 -40 -156 161 0
107 -40 156 -161 0
107 -40 -60 77 0
107 -40 60 -77 0
107 -40 -77 79 0
107 -40 77 -79 0
107 -40 -79 97 0
107 -40 79 -97 0
107 -40 -97 114 0
107 -40 97 -114 0
107 -40 -114 122 0
107 -40 114 -122 0
107 -40 -122 130 0
107 -40 122 -130 0
107 -40 -130 131 0
107 -40 130 -131 0
107 -40 -131 140 0
107 -40 131 -140 0
107 -40 -140 142 0
107 -40 140 -142 0
107 -40 -142 148 0
107 -40 142 -148 0
107 -40 -148 151 0
107 -40 148 -151 0
107 -40 -151 155 0
107 -40 151 -155 0
107 -40 -76 83 0
107 -40 76 -83 0
107 -40 -83 86 0
107 -40 83 -86 0
107 -40 -86 92 0
107 -40 86 -92 0
107 -40 -92 96 0
107 -40 92 -96 0
107 -40 -96 112 0
107 -40 96 -112 0
107 -40 -112 118 0
107 -40 112 -118 0
107 -40 -118 119 0
107 -40 118 -119 0
107 -40 -119 120 0
107 -40 119 -120 0
107 -40 -120 126 0
107 -40 120 -126 0
107 -40 -126 127 0
107 -40 126 -127 0
107 -40 -127 132 0
107 -40 127 -132 0
107 -40 -132 133 0
107 -40 132 -133 0
107 -40 -133 134 0
107 -40 133 -134 0
107 -40 -134 136 0
107 -40 134 -136 0
107 -40 -136 137 0
107 -40 136 -137 0
107 -40 -137 141 0
107 -40 137 -141 0
107 -40 -141 143 0
107 -40 141 -143 0
107 -40 -143 144 0
107 -40 143 -144 0
107 -40 -144 160 0
107 -40 144 -160 0
107 -40 -160 163 0
107 -40 160 -163 0
107 -40 -61 68 0
107 -40 61 -68 0
107 -40 -68 69 0
107 -40 68 -69 0
107 -40 -69 73 0
107 -40 69 -73 0
107 -40 -73 75 0
107 -40 73 -75 0
107 -40 -75 78 0
107 -40 75 -78 0
107 -40 -78 84 0
107 -40 78 -84 0
107 -40 -84 87 0
107 -40 84 -87 0
107 -40 -87 88 0
107 -40 87 -88 0
107 -40 -88 90 0
107 -40 88 -90 0
107 -40 -90 91 0
107 -40 90 -91 0
107 -40 -91 93 0
107 -40 91 -93 0
107 -40 -93 95 0
107 -40 93 -95 0
107 -40 -95 121 0
107 -40 95 -121 0
107 -40 -121 123 0
107 -40 121 -123 0
107 -40 -123 124 0
107 -40 123 -124 0
107 -40 -124 129 0
107 -40 124 -129 0
107 -40 -129 138 0
107 -40 129 -138 0
107 -40 -138 145 0
107 -40 138 -145 0
107 -40 -145 149 0
107 -40 145 -149 0
107 -40 -149 150 0
107 -40 149 -150 0
107 -40 -150 152 0
107 -40 150 -152 0
107 -40 -152 154 0
107 -40 152 -154 0
107 -40 -154 157 0
107 -40 154 -157 0
107 -40 -157 158 0
107 -40 157 -158 0
107 -40 -158 159 0
107 -40 158 -159 0
107 -40 -159 162 0
107 -40 159 -162 0
107 -41 -58 59 0
107 -41 58 -59 0
107 -41 -59 60 0
107 -41 59 -60 0
107 -41 -60 61 0
107 -41 60 -61 0
107 -41 -61 62 0
107 -41 61 -62 0
107 -41 -62 65 0
107 -41 62 -65 0
107 -41 -65 67 0
107 -41 65 -67 0
107 -41 -67 68 0
107 -41 67 -68 0
107 -41 -68 69 0
107 -41 68 -69 0
107 -41 -69 70 0
107 -41 69 -70 0
107 -41 -70 71 0
107 -41 70 -71 0
107 -41 -71 72 0
107 -41 71 -72 0
107 -41 -72 73 0
107 -41 72 -73 0
107 -41 -73 74 0
107 -41 73 -74 0
107 -41 -74 76 0
107 -41 74 -76 0
107 -41 -76 77 0
107 -41 76 -77 0
107 -41 -77 80 0
107 -41 77 -80 0
107 -41 -80 84 0
107 -41 80 -84 0
107 -41 -84 85 0
107 -41 84 -85 0
107 -41 -85 86 0
107 -41 85 -86 0
107 -41 -86 87 0
107 -41 86 -87 0
107 -41 -87 89 0
107 -41 87 -89 0
107 -41 -89 90 0
107 -41 89 -90 0
107 -41 -90 92 0
107 -41 90 -92 0
107 -41 -92 93 0
107 -41 92 -93 0
107 -41 -93 94 0
107 -41 93 -94 0
107 -41 -94 95 0
107 -41 94 -95 0
107 -41 -95 96 0
107 -41 95 -96 0
107 -41 -96 97 0
107 -41 96 -97 0
107 -41 -97 106 0
107 -41 97 -106 0
107 -41 -106 113 0
107 -41 106 -113 0
107 -41 -113 114 0
107 -41 113 -114 0
107 -41 -114 126 0
107 -41 114 -126 0
107 -41 -126 134 0
107 -41 126 -134 0
107 -41 -134 136 0
107 -41 134 -136 0
107 -41 -136 137 0
107 -41 136 -137 0
107 -41 -137 143 0
107 -41 137 -143 0
107 -41 -143 148 0
107 -41 143 -148 0
107 -41 -148 149 0
107 -41 148 -149 0
107 -41 -149 150 0
107 -41 149 -150 0
107 -41 -150 160 0
107 -41 150 -160 0
107 -41 -63 79 0
107 -41 63 -79 0
107 -41 -79 82 0
107 -41 79 -82 0
107 -41 -82 91 0
107 -41 82 -91 0
107 -41 -91 98 0
107 -41 91 -98 0
107 -41 -98 100 0
107 -41 98 -100 0
107 -41 -100 105 0
107 -41 100 -105 0
107 -41 -105 111 0
107 -41 105 -111 0
107 -41 -111 115 0
107 -41 111 -115 0
107 -41 -115 117 0
107 -41 115 -117 0
107 -41 -117 118 0
107 -41 117 -118 0
107 -41 -118 119 0
107 -41 118 -119 0
107 -41 -119 127 0
107 -41 119 -127 0
107 -41 -127 130 0
107 -41 127 -130 0
107 -41 -130 140 0
107 -41 130 -140 0
107 -41 -140 145 0
107 -41 140 -145 0
107 -41 -145 147 0
107 -41 145 -147 0
107 -41 -147 153 0
107 -41 147 -153 0
107 -41 -153 157 0
107 -41 153 -157 0
107 -41 -157 163 0
107 -41 157 -163 0
107 -41 -64 75 0
107 -41 64 -75 0
107 -41 -75 78 0
107 -41 75 -78 0
107 -41 -78 81 0
107 -41 78 -81 0
107 -41 -81 83 0
107 -41 81 -83 0
107 -41 -83 88 0
107 -41 83 -88 0
107 -41 -88 101 0
107 -41 88 -101 0
107 -41 -101 102 0
107 -41 101 -102 0
107 -41 -102 104 0
107 -41 102 -104 0
107 -41 -104 116 0
107 -41 104 -116 0
107 -41 -116 122 0
107 -41 116 -122 0
107 -41 -122 124 0
107 -41 122 -124 0
107 -41 -124 131 0
107 -41 124 -131 0
107 -41 -131 135 0
107 -41 131 -135 0
107 -41 -135 138 0
107 -41 135 -138 0
107 -41 -138 154 0
107 -41 138 -154 0
107 -41 -154 155 0
107 -41 154 -155 0
107 -41 -155 159 0
107 -41 155 -159 0
107 -41 -66 99 0
107 -41 66 -99 0
107 -41 -99 103 0
107 -41 99 -103 0
107 -41 -103 107 0
107 -41 103 -107 0
107 -41 -107 108 0
107 -41 107 -108 0
107 -41 -108 109 0
107 -41 108 -109 0
107 -41 -109 110 0
107 -41 109 -110 0
107 -41 -110 112 0
107 -41 110 -112 0
107 -41 -112 120 0
107 -41 112 -120 0
107 -41 -120 121 0
107 -41 120 -121 0
107 -41 -121 123 0
107 -41 121 -123 0
107 -41 -123 125 0
107 -41 123 -125 0
107 -41 -125 128 0
107 -41 125 -128 0
107 -41 -128 129 0
107 -41 128 -129 0
107 -41 -129 132 0
107 -41 129 -132 0
107 -41 -132 133 0
107 -41 132 -133 0
107 -41 -133 139 0
107 -41 133 -139 0
107 -41 -139 141 0
107 -41 139 -141 0
107 -41 -141 142 0
107 -41 141 -142 0
107 -41 -142 144 0
107 -41 142 -144 0
107 -41 -144 146 0
107 -41 144 -146 0
107 -41 -146 151 0
107 -41 146 -151 0
107 -41 -151 152 0
107 -41 151 -152 0
107 -41 -152 156 0
107 -41 152 -156 0
107 -41 -156 158 0
107 -41 156 -158 0
107 -41 -158 161 0
107 -41 158 -161 0
107 -41 -161 162 0
107 -41 161 -162 0
107 -42 -78 85 0
107 -42 78 -85 0
107 -42 -85 88 0
107 -42 85 -88 0
107 -42 -88 91 0
107 -42 88 -91 0
107 -42 -91 92 0
107 -42 91 -92 0
107 -42 -92 93 0
107 -42 92 -93 0
107 -42 -93 94 0
107 -42 93 -94 0
107 -42 -94 95 0
107 -42 94 -95 0
107 -42 -95 97 0
107 -42 95 -97 0
107 -42 -97 101 0
107 -42 97 -101 0
107 -42 -101 102 0
107 -42 101 -102 0
107 -42 -102 108 0
107 -42 102 -108 0
107 -42 -108 110 0
107 -42 108 -110 0
107 -42 -110 126 0
107 -42 110 -126 0
107 -42 -126 138 0
107 -42 126 -138 0
107 -42 -138 142 0
107 -42 138 -142 0
107 -42 -142 145 0
107 -42 142 -145 0
107 -42 -145 147 0
107 -42 145 -147 0
107 -42 -147 159 0
107 -42 147 -159 0
107 -42 -66 77 0
107 -42 66 -77 0
107 -42 -77 80 0
107 -42 77 -80 0
107 -42 -80 82 0
107 -42 80 -82 0
107 -42 -82 87 0
107 -42 82 -87 0
107 -42 -87 90 0
107 -42 87 -90 0
107 -42 -90 99 0
107 -42 90 -99 0
107 -42 -99 106 0
107 -42 99 -106 0
107 -42 -106 109 0
107 -42 106 -109 0
107 -42 -109 116 0
107 -42 109 -116 0
107 -42 -116 117 0
107 -42 116 -117 0
107 -42 -117 120 0
107 -42 117 -120 0
107 -42 -120 121 0
107 -42 120 -121 0
107 -42 -121 124 0
107 -42 121 -124 0
107 -42 -124 127 0
107 -42 124 -127 0
107 -42 -127 129 0
107 -42 127 -129 0
107 -42 -129 132 0
107 -42 129 -132 0
107 -42 -132 134 0
107 -42 132 -134 0
107 -42 -134 135 0
107 -42 134 -135 0
107 -42 -135 136 0
107 -42 135 -136 0
107 -42 -136 144 0
107 -42 136 -144 0
107 -42 -144 149 0
107 -42 144 -149 0
107 -42 -149 150 0
107 -42 149 -150 0
107 -42 -150 152 0
107 -42 150 -152 0
107 -42 -152 154 0
107 -42 152 -154 0
107 -42 -154 155 0
107 -42 154 -155 0
107 -42 -155 163 0
107 -42 155 -163 0
107 -42 -61 81 0
107 -42 61 -81 0
107 -42 -81 84 0
107 -42 81 -84 0
107 -42 -84 86 0
107 -42 84 -86 0
107 -42 -86 89 0
107 -42 86 -89 0
107 -42 -89 98 0
107 -42 89 -98 0
107 -42 -98 103 0
107 -42 98 -103 0
107 -42 -103 104 0
107 -42 103 -104 0
107 -42 -104 105 0
107 -42 104 -105 0
107 -42 -105 107 0
107 -42 105 -107 0
107 -42 -107 111 0
107 -42 107 -111 0
107 -42 -111 112 0
107 -42 111 -112 0
107 -42 -112 113 0
107 -42 112 -113 0
107 -42 -113 115 0
107 -42 113 -115 0
107 -42 -115 119 0
107 -42 115 -119 0
107 -42 -119 122 0
107 -42 119 -122 0
107 -42 -122 123 0
107 -42 122 -123 0
107 -42 -123 125 0
107 -42 123 -125 0
107 -42 -125 128 0
107 -42 125 -128 0
107 -42 -128 130 0
107 -42 128 -130 0
107 -42 -130 137 0
107 -42 130 -137 0
107 -42 -137 139 0
107 -42 137 -139 0
107 -42 -139 140 0
107 -42 139 -140 0
107 -42 -140 141 0
107 -42 140 -141 0
107 -42 -141 143 0
107 -42 141 -143 0
107 -42 -143 146 0
107 -42 143 -146 0
107 -42 -146 158 0
107 -42 146 -158 0
107 -42 -58 59 0
107 -42 58 -59 0
107 -42 -59 60 0
107 -42 59 -60 0
107 -42 -60 62 0
107 -42 60 -62 0
107 -42 -62 63 0
107 -42 62 -63 0
107 -42 -63 64 0
107 -42 63 -64 0
107 -42 -64 65 0
107 -42 64 -65 0
107 -42 -65 67 0
107 -42 65 -67 0
107 -42 -67 68 0
107 -42 67 -68 0
107 -42 -68 69 0
107 -42 68 -69 0
107 -42 -69 70 0
107 -42 69 -70 0
107 -42 -70 71 0
107 -42 70 -71 0
107 -42 -71 72 0
107 -42 71 -72 0
107 -42 -72 73 0
107 -42 72 -73 0
107 -42 -73 74 0
107 -42 73 -74 0
107 -42 -74 75 0
107 -42 74 -75 0
107 -42 -75 76 0
107 -42 75 -76 0
107 -42 -76 79 0
107 -42 76 -79 0
107 -42 -79 83 0
107 -42 79 -83 0
107 -42 -83 96 0
107 -42 83 -96 0
107 -42 -96 100 0
107 -42 96 -100 0
107 -42 -100 114 0
107 -42 100 -114 0
107 -42 -114 118 0
107 -42 114 -118 0
107 -42 -118 131 0
107 -42 118 -131 0
107 -42 -131 133 0
107 -42 131 -133 0
107 -42 -133 148 0
107 -42 133 -148 0
107 -42 -148 151 0
107 -42 148 -151 0
107 -42 -151 153 0
107 -42 151 -153 0
107 -42 -153 156 0
107 -42 153 -156 0
107 -42 -156 157 0
107 -42 156 -157 0
107 -42 -157 160 0
107 -42 157 -160 0
107 -42 -160 161 0
107 -42 160 -161 0
107 -42 -161 162 0
107 -42 161 -162 0
107 -43 -61 63 0
107 -43 61 -63 0
107 -43 -63 69 0
107 -43 63 -69 0
107 -43 -69 75 0
107 -43 69 -75 0
107 -43 -75 82 0
107 -43 75 -82 0
107 -43 -82 98 0
107 -43 82 -98 0
107 -43 -98 102 0
107 -43 98 -102 0
107 -43 -102 105 0
107 -43 102 -105 0
107 -43 -105 110 0
107 -43 105 -110 0
107 -43 -110 111 0
107 -43 110 -111 0
107 -43 -111 112 0
107 -43 111 -112 0
107 -43 -112 133 0
107 -43 112 -133 0
107 -43 -133 140 0
107 -43 133 -140 0
107 -43 -140 141 0
107 -43 140 -141 0
107 -43 -141 143 0
107 -43 141 -143 0
107 -43 -143 147 0
107 -43 143 -147 0
107 -43 -147 150 0
107 -43 147 -150 0
107 -43 -150 154 0
107 -43 150 -154 0
107 -43 -154 155 0
107 -43 154 -155 0
107 -43 -155 156 0
107 -43 155 -156 0
107 -43 -156 159 0
107 -43 156 -159 0
107 -43 -159 163 0
107 -43 159 -163 0
107 -43 -59 64 0
107 -43 59 -64 0
107 -43 -64 101 0
107 -43 64 -101 0
107 -43 -101 103 0
107 -43 101 -103 0
107 -43 -103 108 0
107 -43 103 -108 0
107 -43 -108 115 0
107 -43 108 -115 0
107 -43 -115 116 0
107 -43 115 -116 0
107 -43 -116 119 0
107 -43 116 -119 0
107 -43 -119 123 0
107 -43 119 -123 0
107 -43 -123 124 0
107 -43 123 -124 0
107 -43 -124 126 0
107 -43 124 -126 0
107 -43 -126 132 0
107 -43 126 -132 0
107 -43 -132 135 0
107 -43 132 -135 0
107 -43 -135 137 0
107 -43 135 -137 0
107 -43 -137 142 0
107 -43 137 -142 0
107 -43 -142 146 0
107 -43 142 -146 0
107 -43 -146 157 0
107 -43 146 -157 0
107 -43 -58 60 0
107 -43 58 -60 0
107 -43 -60 62 0
107 -43 60 -62 0
107 -43 -62 66 0
107 -43 62 -66 0
107 -43 -66 67 0
107 -43 66 -67 0
107 -43 -67 68 0
107 -43 67 -68 0
107 -43 -68 70 0
107 -43 68 -70 0
107 -43 -70 71 0
107 -43 70 -71 0
107 -43 -71 72 0
107 -43 71 -72 0
107 -43 -72 73 0
107 -43 72 -73 0
107 -43 -73 74 0
107 -43 73 -74 0
107 -43 -74 76 0
107 -43 74 -76 0
107 -43 -76 100 0
107 -43 76 -100 0
107 -43 -100 109 0
107 -43 100 -109 0
107 -43 -109 113 0
107 -43 109 -113 0
107 -43 -113 125 0
107 -43 113 -125 0
107 -43 -125 134 0
107 -43 125 -134 0
107 -43 -134 136 0
107 -43 134 -136 0
107 -43 -136 138 0
107 -43 136 -138 0
107 -43 -138 148 0
107 -43 138 -148 0
107 -43 -148 152 0
107 -43 148 -152 0
107 -43 -152 153 0
107 -43 152 -153 0
107 -43 -153 160 0
107 -43 153 -160 0
107 -43 -160 161 0
107 -43 160 -161 0
107 -43 -161 162 0
107 -43 161 -162 0
107 -43 -65 77 0
107 -43 65 -77 0
107 -43 -77 78 0
107 -43 77 -78 0
107 -43 -78 79 0
107 -43 78 -79 0
107 -43 -79 80 0
107 -43 79 -80 0
107 -43 -80 81 0
107 -43 80 -81 0
107 -43 -81 83 0
107 -43 81 -83 0
107 -43 -83 84 0
107 -43 83 -84 0
107 -43 -84 85 0
107 -43 84 -85 0
107 -43 -85 86 0
107 -43 85 -86 0
107 -43 -86 87 0
107 -43 86 -87 0
107 -43 -87 88 0
107 -43 87 -88 0
107 -43 -88 89 0
107 -43 88 -89 0
107 -43 -89 90 0
107 -43 89 -90 0
107 -43 -90 91 0
107 -43 90 -91 0
107 -43 -91 92 0
107 -43 91 -92 0
107 -43 -92 93 0
107 -43 92 -93 0
107 -43 -93 94 0
107 -43 93 -94 0
107 -43 -94 95 0
107 -43 94 -95 0
107 -43 -95 96 0
107 -43 95 -96 0
107 -43 -96 97 0
107 -43 96 -97 0
107 -43 -97 99 0
107 -43 97 -99 0
107 -43 -99 104 0
107 -43 99 -104 0
107 -43 -104 106 0
107 -43 104 -106 0
107 -43 -106 107 0
107 -43 106 -107 0
107 -43 -107 114 0
107 -43 107 -114 0
107 -43 -114 117 0
107 -43 114 -117 0
107 -43 -117 118 0
107 -43 117 -118 0
107 -43 -118 120 0
107 -43 118 -120 0
107 -43 -120 121 0
107 -43 120 -121 0
107 -43 -121 122 0
107 -43 121 -122 0
107 -43 -122 127 0
107 -43 122 -127 0
107 -43 -127 128 0
107 -43 127 -128 0
107 -43 -128 129 0
107 -43 128 -129 0
107 -43 -129 130 0
107 -43 129 -130 0
107 -43 -130 131 0
107 -43 130 -131 0
107 -43 -131 139 0
107 -43 131 -139 0
107 -43 -139 144 0
107 -43 139 -144 0
107 -43 -144 145 0
107 -43 144 -145 0
107 -43 -145 149 0
107 -43 145 -149 0
107 -43 -149 151 0
107 -43 149 -151 0
107 -43 -151 158 0
107 -43 151 -158 0
107 -44 -61 64 0
107 -44 61 -64 0
107 -44 -64 78 0
107 -44 64 -78 0
107 -44 -78 79 0
107 -44 78 -79 0
107 -44 -79 80 0
107 -44 79 -80 0
107 -44 -80 81 0
107 -44 80 -81 0
107 -44 -81 82 0
107 -44 81 -82 0
107 -44 -82 91 0
107 -44 82 -91 0
107 -44 -91 96 0
107 -44 91 -96 0
107 -44 -96 112 0
107 -44 96 -112 0
107 -44 -112 113 0
107 -44 112 -113 0
107 -44 -113 125 0
107 -44 113 -125 0
107 -44 -125 126 0
107 -44 125 -126 0
107 -44 -126 135 0
107 -44 126 -135 0
107 -44 -135 150 0
107 -44 135 -150 0
107 -44 -150 152 0
107 -44 150 -152 0
107 -44 -152 155 0
107 -44 152 -155 0
107 -44 -155 158 0
107 -44 155 -158 0
107 -44 -158 159 0
107 -44 158 -159 0
107 -44 -159 163 0
107 -44 159 -163 0
107 -44 -58 60 0
107 -44 58 -60 0
107 -44 -60 62 0
107 -44 60 -62 0
107 -44 -62 66 0
107 -44 62 -66 0
107 -44 -66 67 0
107 -44 66 -67 0
107 -44 -67 68 0
107 -44 67 -68 0
107 -44 -68 69 0
107 -44 68 -69 0
107 -44 -69 70 0
107 -44 69 -70 0
107 -44 -70 71 0
107 -44 70 -71 0
107 -44 -71 72 0
107 -44 71 -72 0
107 -44 -72 73 0
107 -44 72 -73 0
107 -44 -73 74 0
107 -44 73 -74 0
107 -44 -74 76 0
107 -44 74 -76 0
107 -44 -76 87 0
107 -44 76 -87 0
107 -44 -87 88 0
107 -44 87 -88 0
107 -44 -88 97 0
107 -44 88 -97 0
107 -44 -97 106 0
107 -44 97 -106 0
107 -44 -106 111 0
107 -44 106 -111 0
107 -44 -111 114 0
107 -44 111 -114 0
107 -44 -114 119 0
107 -44 114 -119 0
107 -44 -119 127 0
107 -44 119 -127 0
107 -44 -127 128 0
107 -44 127 -128 0
107 -44 -128 133 0
107 -44 128 -133 0
107 -44 -133 137 0
107 -44 133 -137 0
107 -44 -137 139 0
107 -44 137 -139 0
107 -44 -139 141 0
107 -44 139 -141 0
107 -44 -141 143 0
107 -44 141 -143 0
107 -44 -143 144 0
107 -44 143 -144 0
107 -44 -144 149 0
107 -44 144 -149 0
107 -44 -149 156 0
107 -44 149 -156 0
107 -44 -156 162 0
107 -44 156 -162 0
107 -44 -63 65 0
107 -44 63 -65 0
107 -44 -65 75 0
107 -44 65 -75 0
107 -44 -75 84 0
107 -44 75 -84 0
107 -44 -84 90 0
107 -44 84 -90 0
107 -44 -90 92 0
107 -44 90 -92 0
107 -44 -92 93 0
107 -44 92 -93 0
107 -44 -93 95 0
107 -44 93 -95 0
107 -44 -95 117 0
107 -44 95 -117 0
107 -44 -117 121 0
107 -44 117 -121 0
107 -44 -121 122 0
107 -44 121 -122 0
107 -44 -122 123 0
107 -44 122 -123 0
107 -44 -123 131 0
107 -44 123 -131 0
107 -44 -131 140 0
107 -44 131 -140 0
107 -44 -140 145 0
107 -44 140 -145 0
107 -44 -145 146 0
107 -44 145 -146 0
107 -44 -146 147 0
107 -44 146 -147 0
107 -44 -147 151 0
107 -44 147 -151 0
107 -44 -151 160 0
107 -44 151 -160 0
107 -44 -59 77 0
107 -44 59 -77 0
107 -44 -77 83 0
107 -44 77 -83 0
107 -44 -83 85 0
107 -44 83 -85 0
107 -44 -85 86 0
107 -44 85 -86 0
107 -44 -86 89 0
107 -44 86 -89 0
107 -44 -89 94 0
107 -44 89 -94 0
107 -44 -94 98 0
107 -44 94 -98 0
107 -44 -98 99 0
107 -44 98 -99 0
107 -44 -99 100 0
107 -44 99 -100 0
107 -44 -100 101 0
107 -44 100 -101 0
107 -44 -101 102 0
107 -44 101 -102 0
107 -44 -102 103 0
107 -44 102 -103 0
107 -44 -103 104 0
107 -44 103 -104 0
107 -44 -104 105 0
107 -44 104 -105 0
107 -44 -105 107 0
107 -44 105 -107 0
107 -44 -107 108 0
107 -44 107 -108 0
107 -44 -108 109 0
107 -44 108 -109 0
107 -44 -109 110 0
107 -44 109 -110 0
107 -44 -110 115 0
107 -44 110 -115 0
107 -44 -115 116 0
107 -44 115 -116 0
107 -44 -116 118 0
107 -44 116 -118 0
107 -44 -118 120 0
107 -44 118 -120 0
107 -44 -120 124 0
107 -44 120 -124 0
107 -44 -124 129 0
107 -44 124 -129 0
107 -44 -129 130 0
107 -44 129 -130 0
107 -44 -130 132 0
107 -44 130 -132 0
107 -44 -132 134 0
107 -44 132 -134 0
107 -44 -134 136 0
107 -44 134 -136 0
107 -44 -136 138 0
107 -44 136 -138 0
107 -44 -138 142 0
107 -44 138 -142 0
107 -44 -142 148 0
107 -44 142 -148 0
107 -44 -148 153 0
107 -44 148 -153 0
107 -44 -153 154 0
107 -44 153 -154 0
107 -44 -154 157 0
107 -44 154 -157 0
107 -44 -157 161 0
107 -44 157 -161 0
107 -45 -59 63 0
107 -45 59 -63 0
107 -45 -63 66 0
107 -45 63 -66 0
107 -45 -66 68 0
107 -45 66 -68 0
107 -45 -68 73 0
107 -45 68 -73 0
107 -45 -73 81 0
107 -45 73 -81 0
107 -45 -81 83 0
107 -45 81 -83 0
107 -45 -83 85 0
107 -45 83 -85 0
107 -45 -85 86 0
107 -45 85 -86 0
107 -45 -86 87 0
107 -45 86 -87 0
107 -45 -87 89 0
107 -45 87 -89 0
107 -45 -89 99 0
107 -45 89 -99 0
107 -45 -99 103 0
107 -45 99 -103 0
107 -45 -103 104 0
107 -45 103 -104 0
107 -45 -104 105 0
107 -45 104 -105 0
107 -45 -105 109 0
107 -45 105 -109 0
107 -45 -109 111 0
107 -45 109 -111 0
107 -45 -111 115 0
107 -45 111 -115 0
107 -45 -115 117 0
107 -45 115 -117 0
107 -45 -117 119 0
107 -45 117 -119 0
107 -45 -119 128 0
107 -45 119 -128 0
107 -45 -128 130 0
107 -45 128 -130 0
107 -45 -130 131 0
107 -45 130 -131 0
107 -45 -131 142 0
107 -45 131 -142 0
107 -45 -142 147 0
107 -45 142 -147 0
107 -45 -147 148 0
107 -45 147 -148 0
107 -45 -148 154 0
107 -45 148 -154 0
107 -45 -154 160 0
107 -45 154 -160 0
107 -45 -65 75 0
107 -45 65 -75 0
107 -45 -75 88 0
107 -45 75 -88 0
107 -45 -88 90 0
107 -45 88 -90 0
107 -45 -90 91 0
107 -45 90 -91 0
107 -45 -91 92 0
107 -45 91 -92 0
107 -45 -92 93 0
107 -45 92 -93 0
107 -45 -93 94 0
107 -45 93 -94 0
107 -45 -94 95 0
107 -45 94 -95 0
107 -45 -95 98 0
107 -45 95 -98 0
107 -45 -98 112 0
107 -45 98 -112 0
107 -45 -112 114 0
107 -45 112 -114 0
107 -45 -114 125 0
107 -45 114 -125 0
107 -45 -125 149 0
107 -45 125 -149 0
107 -45 -149 161 0
107 -45 149 -161 0
107 -45 -58 62 0
107 -45 58 -62 0
107 -45 -62 64 0
107 -45 62 -64 0
107 -45 -64 67 0
107 -45 64 -67 0
107 -45 -67 69 0
107 -45 67 -69 0
107 -45 -69 70 0
107 -45 69 -70 0
107 -45 -70 71 0
107 -45 70 -71 0
107 -45 -71 72 0
107 -45 71 -72 0
107 -45 -72 74 0
107 -45 72 -74 0
107 -45 -74 76 0
107 -45 74 -76 0
107 -45 -76 78 0
107 -45 76 -78 0
107 -45 -78 80 0
107 -45 78 -80 0
107 -45 -80 84 0
107 -45 80 -84 0
107 -45 -84 96 0
107 -45 84 -96 0
107 -45 -96 107 0
107 -45 96 -107 0
107 -45 -107 113 0
107 -45 107 -113 0
107 -45 -113 116 0
107 -45 113 -116 0
107 -45 -116 118 0
107 -45 116 -118 0
107 -45 -118 120 0
107 -45 118 -120 0
107 -45 -120 121 0
107 -45 120 -121 0
107 -45 -121 123 0
107 -45 121 -123 0
107 -45 -123 124 0
107 -45 123 -124 0
107 -45 -124 127 0
107 -45 124 -127 0
107 -45 -127 129 0
107 -45 127 -129 0
107 -45 -129 134 0
107 -45 129 -134 0
107 -45 -134 135 0
107 -45 134 -135 0
107 -45 -135 139 0
107 -45 135 -139 0
107 -45 -139 140 0
107 -45 139 -140 0
107 -45 -140 141 0
107 -45 140 -141 0
107 -45 -141 146 0
107 -45 141 -146 0
107 -45 -146 153 0
107 -45 146 -153 0
107 -45 -153 157 0
107 -45 153 -157 0
107 -45 -157 158 0
107 -45 157 -158 0
107 -45 -158 159 0
107 -45 158 -159 0
107 -45 -60 61 0
107 -45 60 -61 0
107 -45 -61 77 0
107 -45 61 -77 0
107 -45 -77 79 0
107 -45 77 -79 0
107 -45 -79 82 0
107 -45 79 -82 0
107 -45 -82 97 0
107 -45 82 -97 0
107 -45 -97 100 0
107 -45 97 -100 0
107 -45 -100 101 0
107 -45 100 -101 0
107 -45 -101 102 0
107 -45 101 -102 0
107 -45 -102 106 0
107 -45 102 -106 0
107 -45 -106 108 0
107 -45 106 -108 0
107 -45 -108 110 0
107 -45 108 -110 0
107 -45 -110 122 0
107 -45 110 -122 0
107 -45 -122 126 0
107 -45 122 -126 0
107 -45 -126 132 0
107 -45 126 -132 0
107 -45 -132 133 0
107 -45 132 -133 0
107 -45 -133 136 0
107 -45 133 -136 0
107 -45 -136 137 0
107 -45 136 -137 0
107 -45 -137 138 0
107 -45 137 -138 0
107 -45 -138 143 0
107 -45 138 -143 0
107 -45 -143 144 0
107 -45 143 -144 0
107 -45 -144 145 0
107 -45 144 -145 0
107 -45 -145 150 0
107 -45 145 -150 0
107 -45 -150 151 0
107 -45 150 -151 0
107 -45 -151 152 0
107 -45 151 -152 0
107 -45 -152 155 0
107 -45 152 -155 0
107 -45 -155 156 0
107 -45 155 -156 0
107 -45 -156 162 0
107 -45 156 -162 0
107 -45 -162 163 0
107 -45 162 -163 0
107 -46 -59 60 0
107 -46 59 -60 0
107 -46 -60 61 0
107 -46 60 -61 0
107 -46 -61 66 0
107 -46 61 -66 0
107 -46 -66 79 0
107 -46 66 -79 0
107 -46 -79 81 0
107 -46 79 -81 0
107 -46 -81 82 0
107 -46 81 -82 0
107 -46 -82 104 0
107 -46 82 -104 0
107 -46 -104 112 0
107 -46 104 -112 0
107 -46 -112 115 0
107 -46 112 -115 0
107 -46 -115 116 0
107 -46 115 -116 0
107 -46 -116 118 0
107 -46 116 -118 0
107 -46 -118 120 0
107 -46 118 -120 0
107 -46 -120 122 0
107 -46 120 -122 0
107 -46 -122 124 0
107 -46 122 -124 0
107 -46 -124 138 0
107 -46 124 -138 0
107 -46 -138 139 0
107 -46 138 -139 0
107 -46 -139 148 0
107 -46 139 -148 0
107 -46 -148 150 0
107 -46 148 -150 0
107 -46 -150 151 0
107 -46 150 -151 0
107 -46 -151 152 0
107 -46 151 -152 0
107 -46 -152 153 0
107 -46 152 -153 0
107 -46 -153 154 0
107 -46 153 -154 0
107 -46 -154 158 0
107 -46 154 -158 0
107 -46 -158 161 0
107 -46 158 -161 0
107 -46 -58 62 0
107 -46 58 -62 0
107 -46 -62 64 0
107 -46 62 -64 0
107 -46 -64 67 0
107 -46 64 -67 0
107 -46 -67 68 0
107 -46 67 -68 0
107 -46 -68 69 0
107 -46 68 -69 0
107 -46 -69 70 0
107 -46 69 -70 0
107 -46 -70 71 0
107 -46 70 -71 0
107 -46 -71 72 0
107 -46 71 -72 0
107 -46 -72 73 0
107 -46 72 -73 0
107 -46 -73 74 0
107 -46 73 -74 0
107 -46 -74 75 0
107 -46 74 -75 0
107 -46 -75 76 0
107 -46 75 -76 0
107 -46 -76 78 0
107 -46 76 -78 0
107 -46 -78 83 0
107 -46 78 -83 0
107 -46 -83 84 0
107 -46 83 -84 0
107 -46 -84 85 0
107 -46 84 -85 0
107 -46 -85 87 0
107 -46 85 -87 0
107 -46 -87 88 0
107 -46 87 -88 0
107 -46 -88 95 0
107 -46 88 -95 0
107 -46 -95 96 0
107 -46 95 -96 0
107 -46 -96 98 0
107 -46 96 -98 0
107 -46 -98 102 0
107 -46 98 -102 0
107 -46 -102 109 0
107 -46 102 -109 0
107 -46 -109 130 0
107 -46 109 -130 0
107 -46 -130 134 0
107 -46 130 -134 0
107 -46 -134 135 0
107 -46 134 -135 0
107 -46 -135 136 0
107 -46 135 -136 0
107 -46 -136 137 0
107 -46 136 -137 0
107 -46 -137 141 0
107 -46 137 -141 0
107 -46 -141 142 0
107 -46 141 -142 0
107 -46 -142 145 0
107 -46 142 -145 0
107 -46 -145 157 0
107 -46 145 -157 0
107 -46 -157 160 0
107 -46 157 -160 0
107 -46 -160 163 0
107 -46 160 -163 0
107 -46 -63 86 0
107 -46 63 -86 0
107 -46 -86 89 0
107 -46 86 -89 0
107 -46 -89 90 0
107 -46 89 -90 0
107 -46 -90 91 0
107 -46 90 -91 0
107 -46 -91 92 0
107 -46 91 -92 0
107 -46 -92 93 0
107 -46 92 -93 0
107 -46 -93 94 0
107 -46 93 -94 0
107 -46 -94 101 0
107 -46 94 -101 0
107 -46 -101 105 0
107 -46 101 -105 0
107 -46 -105 108 0
107 -46 105 -108 0
107 -46 -108 113 0
107 -46 108 -113 0
107 -46 -113 114 0
107 -46 113 -114 0
107 -46 -114 119 0
107 -46 114 -119 0
107 -46 -119 125 0
107 -46 119 -125 0
107 -46 -125 128 0
107 -46 125 -128 0
107 -46 -128 131 0
107 -46 128 -131 0
107 -46 -131 132 0
107 -46 131 -132 0
107 -46 -132 133 0
107 -46 132 -133 0
107 -46 -133 144 0
107 -46 133 -144 0
107 -46 -144 155 0
107 -46 144 -155 0
107 -46 -155 156 0
107 -46 155 -156 0
107 -46 -156 159 0
107 -46 156 -159 0
107 -46 -159 162 0
107 -46 159 -162 0
107 -46 -65 77 0
107 -46 65 -77 0
107 -46 -77 80 0
107 -46 77 -80 0
107 -46 -80 97 0
107 -46 80 -97 0
107 -46 -97 99 0
107 -46 97 -99 0
107 -46 -99 100 0
107 -46 99 -100 0
107 -46 -100 103 0
107 -46 100 -103 0
107 -46 -103 106 0
107 -46 103 -106 0
107 -46 -106 107 0
107 -46 106 -107 0
107 -46 -107 110 0
107 -46 107 -110 0
107 -46 -110 111 0
107 -46 110 -111 0
107 -46 -111 117 0
107 -46 111 -117 0
107 -46 -117 121 0
107 -46 117 -121 0
107 -46 -121 123 0
107 -46 121 -123 0
107 -46 -123 126 0
107 -46 123 -126 0
107 -46 -126 127 0
107 -46 126 -127 0
107 -46 -127 129 0
107 -46 127 -129 0
107 -46 -129 140 0
107 -46 129 -140 0
107 -46 -140 143 0
107 -46 140 -143 0
107 -46 -143 146 0
107 -46 143 -146 0
107 -46 -146 147 0
107 -46 146 -147 0
107 -46 -147 149 0
107 -46 147 -149 0
107 -47 -60 68 0
107 -47 60 -68 0
107 -47 -68 73 0
107 -47 68 -73 0
107 -47 -73 79 0
107 -47 73 -79 0
107 -47 -79 80 0
107 -47 79 -80 0
107 -47 -80 83 0
107 -47 80 -83 0
107 -47 -83 85 0
107 -47 83 -85 0
107 -47 -85 86 0
107 -47 85 -86 0
107 -47 -86 87 0
107 -47 86 -87 0
107 -47 -87 88 0
107 -47 87 -88 0
107 -47 -88 97 0
107 -47 88 -97 0
107 -47 -97 104 0
107 -47 97 -104 0
107 -47 -104 113 0
107 -47 104 -113 0
107 -47 -113 119 0
107 -47 113 -119 0
107 -47 -119 122 0
107 -47 119 -122 0
107 -47 -122 123 0
107 -47 122 -123 0
107 -47 -123 126 0
107 -47 123 -126 0
107 -47 -126 129 0
107 -47 126 -129 0
107 -47 -129 131 0
107 -47 129 -131 0
107 -47 -131 136 0
107 -47 131 -136 0
107 -47 -136 148 0
107 -47 136 -148 0
107 -47 -148 149 0
107 -47 148 -149 0
107 -47 -149 154 0
107 -47 149 -154 0
107 -47 -154 157 0
107 -47 154 -157 0
107 -47 -157 159 0
107 -47 157 -159 0
107 -47 -159 162 0
107 -47 159 -162 0
107 -47 -162 163 0
107 -47 162 -163 0
107 -47 -59 61 0
107 -47 59 -61 0
107 -47 -61 62 0
107 -47 61 -62 0
107 -47 -62 64 0
107 -47 62 -64 0
107 -47 -64 67 0
107 -47 64 -67 0
107 -47 -67 69 0
107 -47 67 -69 0
107 -47 -69 70 0
107 -47 69 -70 0
107 -47 -70 71 0
107 -47 70 -71 0
107 -47 -71 72 0
107 -47 71 -72 0
107 -47 -72 74 0
107 -47 72 -74 0
107 -47 -74 76 0
107 -47 74 -76 0
107 -47 -76 90 0
107 -47 76 -90 0
107 -47 -90 91 0
107 -47 90 -91 0
107 -47 -91 92 0
107 -47 91 -92 0
107 -47 -92 93 0
107 -47 92 -93 0
107 -47 -93 96 0
107 -47 93 -96 0
107 -47 -96 98 0
107 -47 96 -98 0
107 -47 -98 100 0
107 -47 98 -100 0
107 -47 -100 115 0
107 -47 100 -115 0
107 -47 -115 116 0
107 -47 115 -116 0
107 -47 -116 118 0
107 -47 116 -118 0
107 -47 -118 121 0
107 -47 118 -121 0
107 -47 -121 127 0
107 -47 121 -127 0
107 -47 -127 128 0
107 -47 127 -128 0
107 -47 -128 132 0
107 -47 128 -132 0
107 -47 -132 134 0
107 -47 132 -134 0
107 -47 -134 142 0
107 -47 134 -142 0
107 -47 -142 144 0
107 -47 142 -144 0
107 -47 -144 151 0
107 -47 144 -151 0
107 -47 -151 158 0
107 -47 151 -158 0
107 -47 -158 161 0
107 -47 158 -161 0
107 -47 -58 77 0
107 -47 58 -77 0
107 -47 -77 78 0
107 -47 77 -78 0
107 -47 -78 81 0
107 -47 78 -81 0
107 -47 -81 84 0
107 -47 81 -84 0
107 -47 -84 94 0
107 -47 84 -94 0
107 -47 -94 95 0
107 -47 94 -95 0
107 -47 -95 103 0
107 -47 95 -103 0
107 -47 -103 107 0
107 -47 103 -107 0
107 -47 -107 110 0
107 -47 107 -110 0
107 -47 -110 114 0
107 -47 110 -114 0
107 -47 -114 117 0
107 -47 114 -117 0
107 -47 -117 120 0
107 -47 117 -120 0
107 -47 -120 124 0
107 -47 120 -124 0
107 -47 -124 133 0
107 -47 124 -133 0
107 -47 -133 135 0
107 -47 133 -135 0
107 -47 -135 137 0
107 -47 135 -137 0
107 -47 -137 140 0
107 -47 137 -140 0
107 -47 -140 143 0
107 -47 140 -143 0
107 -47 -143 145 0
107 -47 143 -145 0
107 -47 -145 146 0
107 -47 145 -146 0
107 -47 -146 152 0
107 -47 146 -152 0
107 -47 -152 153 0
107 -47 152 -153 0
107 -47 -153 160 0
107 -47 153 -160 0
107 -47 -63 65 0
107 -47 63 -65 0
107 -47 -65 66 0
107 -47 65 -66 0
107 -47 -66 75 0
107 -47 66 -75 0
107 -47 -75 82 0
107 -47 75 -82 0
107 -47 -82 89 0
107 -47 82 -89 0
107 -47 -89 99 0
107 -47 89 -99 0
107 -47 -99 101 0
107 -47 99 -101 0
107 -47 -101 102 0
107 -47 101 -102 0
107 -47 -102 105 0
107 -47 102 -105 0
107 -47 -105 106 0
107 -47 105 -106 0
107 -47 -106 108 0
107 -47 106 -108 0
107 -47 -108 109 0
107 -47 108 -109 0
107 -47 -109 111 0
107 -47 109 -111 0
107 -47 -111 112 0
107 -47 111 -112 0
107 -47 -112 125 0
107 -47 112 -125 0
107 -47 -125 130 0
107 -47 125 -130 0
107 -47 -130 138 0
107 -47 130 -138 0
107 -47 -138 139 0
107 -47 138 -139 0
107 -47 -139 141 0
107 -47 139 -141 0
107 -47 -141 147 0
107 -47 141 -147 0
107 -47 -147 150 0
107 -47 147 -150 0
107 -47 -150 155 0
107 -47 150 -155 0
107 -47 -155 156 0
107 -47 155 -156 0
107 -48 -67 69 0
107 -48 67 -69 0
107 -48 -69 72 0
107 -48 69 -72 0
107 -48 -72 82 0
107 -48 72 -82 0
107 -48 -82 83 0
107 -48 82 -83 0
107 -48 -83 84 0
107 -48 83 -84 0
107 -48 -84 86 0
107 -48 84 -86 0
107 -48 -86 96 0
107 -48 86 -96 0
107 -48 -96 98 0
107 -48 96 -98 0
107 -48 -98 101 0
107 -48 98 -101 0
107 -48 -101 102 0
107 -48 101 -102 0
107 -48 -102 104 0
107 -48 102 -104 0
107 -48 -104 106 0
107 -48 104 -106 0
107 -48 -106 108 0
107 -48 106 -108 0
107 -48 -108 113 0
107 -48 108 -113 0
107 -48 -113 116 0
107 -48 113 -116 0
107 -48 -116 133 0
107 -48 116 -133 0
107 -48 -133 136 0
107 -48 133 -136 0
107 -48 -136 141 0
107 -48 136 -141 0
107 -48 -141 144 0
107 -48 141 -144 0
107 -48 -144 145 0
107 -48 144 -145 0
107 -48 -145 147 0
107 -48 145 -147 0
107 -48 -147 151 0
107 -48 147 -151 0
107 -48 -151 162 0
107 -48 151 -162 0
107 -48 -162 163 0
107 -48 162 -163 0
107 -48 -60 63 0
107 -48 60 -63 0
107 -48 -63 64 0
107 -48 63 -64 0
107 -48 -64 65 0
107 -48 64 -65 0
107 -48 -65 68 0
107 -48 65 -68 0
107 -48 -68 73 0
107 -48 68 -73 0
107 -48 -73 75 0
107 -48 73 -75 0
107 -48 -75 76 0
107 -48 75 -76 0
107 -48 -76 78 0
107 -48 76 -78 0
107 -48 -78 79 0
107 -48 78 -79 0
107 -48 -79 80 0
107 -48 79 -80 0
107 -48 -80 89 0
107 -48 80 -89 0
107 -48 -89 91 0
107 -48 89 -91 0
107 -48 -91 93 0
107 -48 91 -93 0
107 -48 -93 94 0
107 -48 93 -94 0
107 -48 -94 95 0
107 -48 94 -95 0
107 -48 -95 97 0
107 -48 95 -97 0
107 -48 -97 99 0
107 -48 97 -99 0
107 -48 -99 105 0
107 -48 99 -105 0
107 -48 -105 109 0
107 -48 105 -109 0
107 -48 -109 111 0
107 -48 109 -111 0
107 -48 -111 123 0
107 -48 111 -123 0
107 -48 -123 127 0
107 -48 123 -127 0
107 -48 -127 128 0
107 -48 127 -128 0
107 -48 -128 131 0
107 -48 128 -131 0
107 -48 -131 134 0
107 -48 131 -134 0
107 -48 -134 135 0
107 -48 134 -135 0
107 -48 -135 138 0
107 -48 135 -138 0
107 -48 -138 143 0
107 -48 138 -143 0
107 -48 -143 148 0
107 -48 143 -148 0
107 -48 -148 149 0
107 -48 148 -149 0
107 -48 -149 161 0
107 -48 149 -161 0
107 -48 -58 59 0
107 -48 58 -59 0
107 -48 -59 66 0
107 -48 59 -66 0
107 -48 -66 81 0
107 -48 66 -81 0
107 -48 -81 87 0
107 -48 81 -87 0
107 -48 -87 88 0
107 -48 87 -88 0
107 -48 -88 90 0
107 -48 88 -90 0
107 -48 -90 92 0
107 -48 90 -92 0
107 -48 -92 103 0
107 -48 92 -103 0
107 -48 -103 115 0
107 -48 103 -115 0
107 -48 -115 119 0
107 -48 115 -119 0
107 -48 -119 120 0
107 -48 119 -120 0
107 -48 -120 122 0
107 -48 120 -122 0
107 -48 -122 129 0
107 -48 122 -129 0
107 -48 -129 130 0
107 -48 129 -130 0
107 -48 -130 132 0
107 -48 130 -132 0
107 -48 -132 139 0
107 -48 132 -139 0
107 -48 -139 140 0
107 -48 139 -140 0
107 -48 -140 150 0
107 -48 140 -150 0
107 -48 -150 156 0
107 -48 150 -156 0
107 -48 -156 158 0
107 -48 156 -158 0
107 -48 -158 159 0
107 -48 158 -159 0
107 -48 -61 62 0
107 -48 61 -62 0
107 -48 -62 70 0
107 -48 62 -70 0
107 -48 -70 71 0
107 -48 70 -71 0
107 -48 -71 74 0
107 -48 71 -74 0
107 -48 -74 77 0
107 -48 74 -77 0
107 -48 -77 85 0
107 -48 77 -85 0
107 -48 -85 100 0
107 -48 85 -100 0
107 -48 -100 107 0
107 -48 100 -107 0
107 -48 -107 110 0
107 -48 107 -110 0
107 -48 -110 112 0
107 -48 110 -112 0
107 -48 -112 114 0
107 -48 112 -114 0
107 -48 -114 117 0
107 -48 114 -117 0
107 -48 -117 118 0
107 -48 117 -118 0
107 -48 -118 121 0
107 -48 118 -121 0
107 -48 -121 124 0
107 -48 121 -124 0
107 -48 -124 125 0
107 -48 124 -125 0
107 -48 -125 126 0
107 -48 125 -126 0
107 -48 -126 137 0
107 -48 126 -137 0
107 -48 -137 142 0
107 -48 137 -142 0
107 -48 -142 146 0
107 -48 142 -146 0
107 -48 -146 152 0
107 -48 146 -152 0
107 -48 -152 153 0
107 -48 152 -153 0
107 -48 -153 154 0
107 -48 153 -154 0
107 -48 -154 155 0
107 -48 154 -155 0
107 -48 -155 157 0
107 -48 155 -157 0
107 -48 -157 160 0
107 -48 157 -160 0
107 -49 -61 64 0
107 -49 61 -64 0
107 -49 -64 65 0
107 -49 64 -65 0
107 -49 -65 66 0
107 -49 65 -66 0
107 -49 -66 85 0
107 -49 66 -85 0
107 -49 -85 86 0
107 -49 85 -86 0
107 -49 -86 101 0
107 -49 86 -101 0
107 -49 -101 102 0
107 -49 101 -102 0
107 -49 -102 108 0
107 -49 102 -108 0
107 -49 -108 112 0
107 -49 108 -112 0
107 -49 -112 121 0
107 -49 112 -121 0
107 -49 -121 123 0
107 -49 121 -123 0
107 -49 -123 129 0
107 -49 123 -129 0
107 -49 -129 135 0
107 -49 129 -135 0
107 -49 -135 138 0
107 -49 135 -138 0
107 -49 -138 141 0
107 -49 138 -141 0
107 -49 -141 147 0
107 -49 141 -147 0
107 -49 -147 149 0
107 -49 147 -149 0
107 -49 -149 153 0
107 -49 149 -153 0
107 -49 -153 155 0
107 -49 153 -155 0
107 -49 -155 156 0
107 -49 155 -156 0
107 -49 -156 161 0
107 -49 156 -161 0
107 -49 -161 162 0
107 -49 161 -162 0
107 -49 -59 60 0
107 -49 59 -60 0
107 -49 -60 62 0
107 -49 60 -62 0
107 -49 -62 63 0
107 -49 62 -63 0
107 -49 -63 67 0
107 -49 63 -67 0
107 -49 -67 68 0
107 -49 67 -68 0
107 -49 -68 69 0
107 -49 68 -69 0
107 -49 -69 70 0
107 -49 69 -70 0
107 -49 -70 71 0
107 -49 70 -71 0
107 -49 -71 72 0
107 -49 71 -72 0
107 -49 -72 73 0
107 -49 72 -73 0
107 -49 -73 74 0
107 -49 73 -74 0
107 -49 -74 76 0
107 -49 74 -76 0
107 -49 -76 78 0
107 -49 76 -78 0
107 -49 -78 79 0
107 -49 78 -79 0
107 -49 -79 81 0
107 -49 79 -81 0
107 -49 -81 84 0
107 -49 81 -84 0
107 -49 -84 87 0
107 -49 84 -87 0
107 -49 -87 88 0
107 -49 87 -88 0
107 -49 -88 90 0
107 -49 88 -90 0
107 -49 -90 92 0
107 -49 90 -92 0
107 -49 -92 93 0
107 -49 92 -93 0
107 -49 -93 97 0
107 -49 93 -97 0
107 -49 -97 99 0
107 -49 97 -99 0
107 -49 -99 100 0
107 -49 99 -100 0
107 -49 -100 113 0
107 -49 100 -113 0
107 -49 -113 115 0
107 -49 113 -115 0
107 -49 -115 118 0
107 -49 115 -118 0
107 -49 -118 122 0
107 -49 118 -122 0
107 -49 -122 125 0
107 -49 122 -125 0
107 -49 -125 136 0
107 -49 125 -136 0
107 -49 -136 137 0
107 -49 136 -137 0
107 -49 -137 140 0
107 -49 137 -140 0
107 -49 -140 150 0
107 -49 140 -150 0
107 -49 -150 151 0
107 -49 150 -151 0
107 -49 -151 152 0
107 -49 151 -152 0
107 -49 -58 75 0
107 -49 58 -75 0
107 -49 -75 80 0
107 -49 75 -80 0
107 -49 -80 82 0
107 -49 80 -82 0
107 -49 -82 83 0
107 -49 82 -83 0
107 -49 -83 89 0
107 -49 83 -89 0
107 -49 -89 91 0
107 -49 89 -91 0
107 -49 -91 94 0
107 -49 91 -94 0
107 -49 -94 95 0
107 -49 94 -95 0
107 -49 -95 96 0
107 -49 95 -96 0
107 -49 -96 98 0
107 -49 96 -98 0
107 -49 -98 104 0
107 -49 98 -104 0
107 -49 -104 105 0
107 -49 104 -105 0
107 -49 -105 106 0
107 -49 105 -106 0
107 -49 -106 107 0
107 -49 106 -107 0
107 -49 -107 119 0
107 -49 107 -119 0
107 -49 -119 120 0
107 -49 119 -120 0
107 -49 -120 124 0
107 -49 120 -124 0
107 -49 -124 130 0
107 -49 124 -130 0
107 -49 -130 132 0
107 -49 130 -132 0
107 -49 -132 142 0
107 -49 132 -142 0
107 -49 -142 143 0
107 -49 142 -143 0
107 -49 -143 148 0
107 -49 143 -148 0
107 -49 -148 154 0
107 -49 148 -154 0
107 -49 -154 157 0
107 -49 154 -157 0
107 -49 -157 159 0
107 -49 157 -159 0
107 -49 -77 103 0
107 -49 77 -103 0
107 -49 -103 109 0
107 -49 103 -109 0
107 -49 -109 110 0
107 -49 109 -110 0
107 -49 -110 111 0
107 -49 110 -111 0
107 -49 -111 114 0
107 -49 111 -114 0
107 -49 -114 116 0
107 -49 114 -116 0
107 -49 -116 117 0
107 -49 116 -117 0
107 -49 -117 126 0
107 -49 117 -126 0
107 -49 -126 127 0
107 -49 126 -127 0
107 -49 -127 128 0
107 -49 127 -128 0
107 -49 -128 131 0
107 -49 128 -131 0
107 -49 -131 133 0
107 -49 131 -133 0
107 -49 -133 134 0
107 -49 133 -134 0
107 -49 -134 139 0
107 -49 134 -139 0
107 -49 -139 144 0
107 -49 139 -144 0
107 -49 -144 145 0
107 -49 144 -145 0
107 -49 -145 146 0
107 -49 145 -146 0
107 -49 -146 158 0
107 -49 146 -158 0
107 -49 -158 160 0
107 -49 158 -160 0
107 -49 -160 163 0
107 -49 160 -163 0
107 -50 -59 60 0
107 -50 59 -60 0
107 -50 -60 61 0
107 -50 60 -61 0
107 -50 -61 65 0
107 -50 61 -65 0
107 -50 -65 66 0
107 -50 65 -66 0
107 -50 -66 77 0
107 -50 66 -77 0
107 -50 -77 79 0
107 -50 77 -79 0
107 -50 -79 84 0
107 -50 79 -84 0
107 -50 -84 86 0
107 -50 84 -86 0
107 -50 -86 87 0
107 -50 86 -87 0
107 -50 -87 101 0
107 -50 87 -101 0
107 -50 -101 104 0
107 -50 101 -104 0
107 -50 -104 115 0
107 -50 104 -115 0
107 -50 -115 119 0
107 -50 115 -119 0
107 -50 -119 125 0
107 -50 119 -125 0
107 -50 -125 130 0
107 -50 125 -130 0
107 -50 -130 134 0
107 -50 130 -134 0
107 -50 -134 136 0
107 -50 134 -136 0
107 -50 -136 142 0
107 -50 136 -142 0
107 -50 -142 143 0
107 -50 142 -143 0
107 -50 -143 155 0
107 -50 143 -155 0
107 -50 -155 156 0
107 -50 155 -156 0
107 -50 -156 159 0
107 -50 156 -159 0
107 -50 -159 161 0
107 -50 159 -161 0
107 -50 -58 62 0
107 -50 58 -62 0
107 -50 -62 67 0
107 -50 62 -67 0
107 -50 -67 68 0
107 -50 67 -68 0
107 -50 -68 69 0
107 -50 68 -69 0
107 -50 -69 70 0
107 -50 69 -70 0
107 -50 -70 71 0
107 -50 70 -71 0
107 -50 -71 72 0
107 -50 71 -72 0
107 -50 -72 74 0
107 -50 72 -74 0
107 -50 -74 78 0
107 -50 74 -78 0
107 -50 -78 80 0
107 -50 78 -80 0
107 -50 -80 85 0
107 -50 80 -85 0
107 -50 -85 89 0
107 -50 85 -89 0
107 -50 -89 90 0
107 -50 89 -90 0
107 -50 -90 93 0
107 -50 90 -93 0
107 -50 -93 95 0
107 -50 93 -95 0
107 -50 -95 96 0
107 -50 95 -96 0
107 -50 -96 97 0
107 -50 96 -97 0
107 -50 -97 98 0
107 -50 97 -98 0
107 -50 -98 99 0
107 -50 98 -99 0
107 -50 -99 100 0
107 -50 99 -100 0
107 -50 -100 102 0
107 -50 100 -102 0
107 -50 -102 105 0
107 -50 102 -105 0
107 -50 -105 108 0
107 -50 105 -108 0
107 -50 -108 116 0
107 -50 108 -116 0
107 -50 -116 121 0
107 -50 116 -121 0
107 -50 -121 123 0
107 -50 121 -123 0
107 -50 -123 124 0
107 -50 123 -124 0
107 -50 -124 126 0
107 -50 124 -126 0
107 -50 -126 127 0
107 -50 126 -127 0
107 -50 -127 128 0
107 -50 127 -128 0
107 -50 -128 129 0
107 -50 128 -129 0
107 -50 -129 135 0
107 -50 129 -135 0
107 -50 -135 137 0
107 -50 135 -137 0
107 -50 -137 139 0
107 -50 137 -139 0
107 -50 -139 141 0
107 -50 139 -141 0
107 -50 -141 147 0
107 -50 141 -147 0
107 -50 -147 151 0
107 -50 147 -151 0
107 -50 -151 153 0
107 -50 151 -153 0
107 -50 -153 154 0
107 -50 153 -154 0
107 -50 -154 160 0
107 -50 154 -160 0
107 -50 -160 163 0
107 -50 160 -163 0
107 -50 -63 73 0
107 -50 63 -73 0
107 -50 -73 76 0
107 -50 73 -76 0
107 -50 -76 81 0
107 -50 76 -81 0
107 -50 -81 82 0
107 -50 81 -82 0
107 -50 -82 106 0
107 -50 82 -106 0
107 -50 -106 107 0
107 -50 106 -107 0
107 -50 -107 110 0
107 -50 107 -110 0
107 -50 -110 111 0
107 -50 110 -111 0
107 -50 -111 114 0
107 -50 111 -114 0
107 -50 -114 120 0
107 -50 114 -120 0
107 -50 -120 131 0
107 -50 120 -131 0
107 -50 -131 138 0
107 -50 131 -138 0
107 -50 -138 144 0
107 -50 138 -144 0
107 -50 -144 145 0
107 -50 144 -145 0
107 -50 -145 157 0
107 -50 145 -157 0
107 -50 -157 158 0
107 -50 157 -158 0
107 -50 -158 162 0
107 -50 158 -162 0
107 -50 -64 75 0
107 -50 64 -75 0
107 -50 -75 83 0
107 -50 75 -83 0
107 -50 -83 88 0
107 -50 83 -88 0
107 -50 -88 91 0
107 -50 88 -91 0
107 -50 -91 92 0
107 -50 91 -92 0
107 -50 -92 94 0
107 -50 92 -94 0
107 -50 -94 103 0
107 -50 94 -103 0
107 -50 -103 109 0
107 -50 103 -109 0
107 -50 -109 112 0
107 -50 109 -112 0
107 -50 -112 113 0
107 -50 112 -113 0
107 -50 -113 117 0
107 -50 113 -117 0
107 -50 -117 118 0
107 -50 117 -118 0
107 -50 -118 122 0
107 -50 118 -122 0
107 -50 -122 132 0
107 -50 122 -132 0
107 -50 -132 133 0
107 -50 132 -133 0
107 -50 -133 140 0
107 -50 133 -140 0
107 -50 -140 146 0
107 -50 140 -146 0
107 -50 -146 148 0
107 -50 146 -148 0
107 -50 -148 149 0
107 -50 148 -149 0
107 -50 -149 150 0
107 -50 149 -150 0
107 -50 -150 152 0
107 -50 150 -152 0
107 -51 -66 67 0
107 -51 66 -67 0
107 -51 -67 71 0
107 -51 67 -71 0
107 -51 -71 72 0
107 -51 71 -72 0
107 -51 -72 74 0
107 -51 72 -74 0
107 -51 -74 80 0
107 -51 74 -80 0
107 -51 -80 81 0
107 -51 80 -81 0
107 -51 -81 84 0
107 -51 81 -84 0
107 -51 -84 92 0
107 -51 84 -92 0
107 -51 -92 99 0
107 -51 92 -99 0
107 -51 -99 100 0
107 -51 99 -100 0
107 -51 -100 102 0
107 -51 100 -102 0
107 -51 -102 103 0
107 -51 102 -103 0
107 -51 -103 105 0
107 -51 103 -105 0
107 -51 -105 107 0
107 -51 105 -107 0
107 -51 -107 113 0
107 -51 107 -113 0
107 -51 -113 114 0
107 -51 113 -114 0
107 -51 -114 117 0
107 -51 114 -117 0
107 -51 -117 122 0
107 -51 117 -122 0
107 -51 -122 123 0
107 -51 122 -123 0
107 -51 -123 125 0
107 -51 123 -125 0
107 -51 -125 127 0
107 -51 125 -127 0
107 -51 -127 132 0
107 -51 127 -132 0
107 -51 -132 140 0
107 -51 132 -140 0
107 -51 -140 157 0
107 -51 140 -157 0
107 -51 -157 159 0
107 -51 157 -159 0
107 -51 -159 160 0
107 -51 159 -160 0
107 -51 -160 163 0
107 -51 160 -163 0
107 -51 -60 61 0
107 -51 60 -61 0
107 -51 -61 64 0
107 -51 61 -64 0
107 -51 -64 65 0
107 -51 64 -65 0
107 -51 -65 68 0
107 -51 65 -68 0
107 -51 -68 73 0
107 -51 68 -73 0
107 -51 -73 76 0
107 -51 73 -76 0
107 -51 -76 77 0
107 -51 76 -77 0
107 -51 -77 82 0
107 -51 77 -82 0
107 -51 -82 83 0
107 -51 82 -83 0
107 -51 -83 85 0
107 -51 83 -85 0
107 -51 -85 86 0
107 -51 85 -86 0
107 -51 -86 94 0
107 -51 86 -94 0
107 -51 -94 95 0
107 -51 94 -95 0
107 -51 -95 96 0
107 -51 95 -96 0
107 -51 -96 97 0
107 -51 96 -97 0
107 -51 -97 98 0
107 -51 97 -98 0
107 -51 -98 101 0
107 -51 98 -101 0
107 -51 -101 104 0
107 -51 101 -104 0
107 -51 -104 106 0
107 -51 104 -106 0
107 -51 -106 116 0
107 -51 106 -116 0
107 -51 -116 119 0
107 -51 116 -119 0
107 -51 -119 131 0
107 -51 119 -131 0
107 -51 -131 134 0
107 -51 131 -134 0
107 -51 -134 135 0
107 -51 134 -135 0
107 -51 -135 138 0
107 -51 135 -138 0
107 -51 -138 147 0
107 -51 138 -147 0
107 -51 -147 148 0
107 -51 147 -148 0
107 -51 -148 152 0
107 -51 148 -152 0
107 -51 -152 156 0
107 -51 152 -156 0
107 -51 -156 158 0
107 -51 156 -158 0
107 -51 -62 70 0
107 -51 62 -70 0
107 -51 -70 75 0
107 -51 70 -75 0
107 -51 -75 78 0
107 -51 75 -78 0
107 -51 -78 89 0
107 -51 78 -89 0
107 -51 -89 90 0
107 -51 89 -90 0
107 -51 -90 93 0
107 -51 90 -93 0
107 -51 -93 108 0
107 -51 93 -108 0
107 -51 -108 110 0
107 -51 108 -110 0
107 -51 -110 111 0
107 -51 110 -111 0
107 -51 -111 115 0
107 -51 111 -115 0
107 -51 -115 118 0
107 -51 115 -118 0
107 -51 -118 126 0
107 -51 118 -126 0
107 -51 -126 128 0
107 -51 126 -128 0
107 -51 -128 129 0
107 -51 128 -129 0
107 -51 -129 133 0
107 -51 129 -133 0
107 -51 -133 141 0
107 -51 133 -141 0
107 -51 -141 143 0
107 -51 141 -143 0
107 -51 -143 144 0
107 -51 143 -144 0
107 -51 -144 149 0
107 -51 144 -149 0
107 -51 -149 150 0
107 -51 149 -150 0
107 -51 -150 153 0
107 -51 150 -153 0
107 -51 -153 161 0
107 -51 153 -161 0
107 -51 -161 162 0
107 -51 161 -162 0
107 -51 -58 59 0
107 -51 58 -59 0
107 -51 -59 63 0
107 -51 59 -63 0
107 -51 -63 69 0
107 -51 63 -69 0
107 -51 -69 79 0
107 -51 69 -79 0
107 -51 -79 87 0
107 -51 79 -87 0
107 -51 -87 88 0
107 -51 87 -88 0
107 -51 -88 91 0
107 -51 88 -91 0
107 -51 -91 109 0
107 -51 91 -109 0
107 -51 -109 112 0
107 -51 109 -112 0
107 -51 -112 120 0
107 -51 112 -120 0
107 -51 -120 121 0
107 -51 120 -121 0
107 -51 -121 124 0
107 -51 121 -124 0
107 -51 -124 130 0
107 -51 124 -130 0
107 -51 -130 136 0
107 -51 130 -136 0
107 -51 -136 137 0
107 -51 136 -137 0
107 -51 -137 139 0
107 -51 137 -139 0
107 -51 -139 142 0
107 -51 139 -142 0
107 -51 -142 145 0
107 -51 142 -145 0
107 -51 -145 146 0
107 -51 145 -146 0
107 -51 -146 151 0
107 -51 146 -151 0
107 -51 -151 154 0
107 -51 151 -154 0
107 -51 -154 155 0
107 -51 154 -155 0
107 -52 -61 64 0
107 -52 61 -64 0
107 -52 -64 65 0
107 -52 64 -65 0
107 -52 -65 80 0
107 -52 65 -80 0
107 -52 -80 82 0
107 -52 80 -82 0
107 -52 -82 86 0
107 -52 82 -86 0
107 -52 -86 87 0
107 -52 86 -87 0
107 -52 -87 88 0
107 -52 87 -88 0
107 -52 -88 90 0
107 -52 88 -90 0
107 -52 -90 91 0
107 -52 90 -91 0
107 -52 -91 96 0
107 -52 91 -96 0
107 -52 -96 98 0
107 -52 96 -98 0
107 -52 -98 104 0
107 -52 98 -104 0
107 -52 -104 106 0
107 -52 104 -106 0
107 -52 -106 107 0
107 -52 106 -107 0
107 -52 -107 109 0
107 -52 107 -109 0
107 -52 -109 115 0
107 -52 109 -115 0
107 -52 -115 122 0
107 -52 115 -122 0
107 -52 -122 127 0
107 -52 122 -127 0
107 -52 -127 128 0
107 -52 127 -128 0
107 -52 -128 144 0
107 -52 128 -144 0
107 -52 -144 149 0
107 -52 144 -149 0
107 -52 -149 152 0
107 -52 149 -152 0
107 -52 -152 156 0
107 -52 152 -156 0
107 -52 -156 160 0
107 -52 156 -160 0
107 -52 -160 162 0
107 -52 160 -162 0
107 -52 -162 163 0
107 -52 162 -163 0
107 -52 -59 60 0
107 -52 59 -60 0
107 -52 -60 67 0
107 -52 60 -67 0
107 -52 -67 69 0
107 -52 67 -69 0
107 -52 -69 72 0
107 -52 69 -72 0
107 -52 -72 73 0
107 -52 72 -73 0
107 -52 -73 81 0
107 -52 73 -81 0
107 -52 -81 92 0
107 -52 81 -92 0
107 -52 -92 93 0
107 -52 92 -93 0
107 -52 -93 94 0
107 -52 93 -94 0
107 -52 -94 95 0
107 -52 94 -95 0
107 -52 -95 97 0
107 -52 95 -97 0
107 -52 -97 99 0
107 -52 97 -99 0
107 -52 -99 101 0
107 -52 99 -101 0
107 -52 -101 108 0
107 -52 101 -108 0
107 -52 -108 110 0
107 -52 108 -110 0
107 -52 -110 111 0
107 -52 110 -111 0
107 -52 -111 112 0
107 -52 111 -112 0
107 -52 -112 114 0
107 -52 112 -114 0
107 -52 -114 117 0
107 -52 114 -117 0
107 -52 -117 125 0
107 -52 117 -125 0
107 -52 -125 131 0
107 -52 125 -131 0
107 -52 -131 132 0
107 -52 131 -132 0
107 -52 -132 137 0
107 -52 132 -137 0
107 -52 -137 141 0
107 -52 137 -141 0
107 -52 -141 143 0
107 -52 141 -143 0
107 -52 -143 145 0
107 -52 143 -145 0
107 -52 -145 151 0
107 -52 145 -151 0
107 -52 -151 153 0
107 -52 151 -153 0
107 -52 -153 155 0
107 -52 153 -155 0
107 -52 -155 158 0
107 -52 155 -158 0
107 -52 -158 159 0
107 -52 158 -159 0
107 -52 -68 77 0
107 -52 68 -77 0
107 -52 -77 78 0
107 -52 77 -78 0
107 -52 -78 118 0
107 -52 78 -118 0
107 -52 -118 119 0
107 -52 118 -119 0
107 -52 -119 121 0
107 -52 119 -121 0
107 -52 -121 123 0
107 -52 121 -123 0
107 -52 -123 134 0
107 -52 123 -134 0
107 -52 -134 142 0
107 -52 134 -142 0
107 -52 -142 146 0
107 -52 142 -146 0
107 -52 -146 147 0
107 -52 146 -147 0
107 -52 -147 150 0
107 -52 147 -150 0
107 -52 -150 157 0
107 -52 150 -157 0
107 -52 -157 161 0
107 -52 157 -161 0
107 -52 -58 62 0
107 -52 58 -62 0
107 -52 -62 63 0
107 -52 62 -63 0
107 -52 -63 66 0
107 -52 63 -66 0
107 -52 -66 70 0
107 -52 66 -70 0
107 -52 -70 71 0
107 -52 70 -71 0
107 -52 -71 74 0
107 -52 71 -74 0
107 -52 -74 75 0
107 -52 74 -75 0
107 -52 -75 76 0
107 -52 75 -76 0
107 -52 -76 79 0
107 -52 76 -79 0
107 -52 -79 83 0
107 -52 79 -83 0
107 -52 -83 84 0
107 -52 83 -84 0
107 -52 -84 85 0
107 -52 84 -85 0
107 -52 -85 89 0
107 -52 85 -89 0
107 -52 -89 100 0
107 -52 89 -100 0
107 -52 -100 102 0
107 -52 100 -102 0
107 -52 -102 103 0
107 -52 102 -103 0
107 -52 -103 105 0
107 -52 103 -105 0
107 -52 -105 113 0
107 -52 105 -113 0
107 -52 -113 116 0
107 -52 113 -116 0
107 -52 -116 120 0
107 -52 116 -120 0
107 -52 -120 124 0
107 -52 120 -124 0
107 -52 -124 126 0
107 -52 124 -126 0
107 -52 -126 129 0
107 -52 126 -129 0
107 -52 -129 130 0
107 -52 129 -130 0
107 -52 -130 133 0
107 -52 130 -133 0
107 -52 -133 135 0
107 -52 133 -135 0
107 -52 -135 136 0
107 -52 135 -136 0
107 -52 -136 138 0
107 -52 136 -138 0
107 -52 -138 139 0
107 -52 138 -139 0
107 -52 -139 140 0
107 -52 139 -140 0
107 -52 -140 148 0
107 -52 140 -148 0
107 -52 -148 154 0
107 -52 148 -154 0
107 -53 -61 78 0
107 -53 61 -78 0
107 -53 -78 79 0
107 -53 78 -79 0
107 -53 -79 83 0
107 -53 79 -83 0
107 -53 -83 87 0
107 -53 83 -87 0
107 -53 -87 89 0
107 -53 87 -89 0
107 -53 -89 90 0
107 -53 89 -90 0
107 -53 -90 93 0
107 -53 90 -93 0
107 -53 -93 96 0
107 -53 93 -96 0
107 -53 -96 97 0
107 -53 96 -97 0
107 -53 -97 100 0
107 -53 97 -100 0
107 -53 -100 102 0
107 -53 100 -102 0
107 -53 -102 110 0
107 -53 102 -110 0
107 -53 -110 113 0
107 -53 110 -113 0
107 -53 -113 119 0
107 -53 113 -119 0
107 -53 -119 121 0
107 -53 119 -121 0
107 -53 -121 125 0
107 -53 121 -125 0
107 -53 -125 132 0
107 -53 125 -132 0
107 -53 -132 137 0
107 -53 132 -137 0
107 -53 -137 141 0
107 -53 137 -141 0
107 -53 -141 147 0
107 -53 141 -147 0
107 -53 -147 149 0
107 -53 147 -149 0
107 -53 -149 150 0
107 -53 149 -150 0
107 -53 -150 151 0
107 -53 150 -151 0
107 -53 -151 153 0
107 -53 151 -153 0
107 -53 -60 68 0
107 -53 60 -68 0
107 -53 -68 71 0
107 -53 68 -71 0
107 -53 -71 74 0
107 -53 71 -74 0
107 -53 -74 75 0
107 -53 74 -75 0
107 -53 -75 77 0
107 -53 75 -77 0
107 -53 -77 86 0
107 -53 77 -86 0
107 -53 -86 105 0
107 -53 86 -105 0
107 -53 -105 122 0
107 -53 105 -122 0
107 -53 -122 123 0
107 -53 122 -123 0
107 -53 -123 124 0
107 -53 123 -124 0
107 -53 -124 126 0
107 -53 124 -126 0
107 -53 -126 128 0
107 -53 126 -128 0
107 -53 -128 133 0
107 -53 128 -133 0
107 -53 -133 134 0
107 -53 133 -134 0
107 -53 -134 139 0
107 -53 134 -139 0
107 -53 -139 143 0
107 -53 139 -143 0
107 -53 -143 146 0
107 -53 143 -146 0
107 -53 -146 158 0
107 -53 146 -158 0
107 -53 -158 160 0
107 -53 158 -160 0
107 -53 -160 161 0
107 -53 160 -161 0
107 -53 -58 59 0
107 -53 58 -59 0
107 -53 -59 62 0
107 -53 59 -62 0
107 -53 -62 65 0
107 -53 62 -65 0
107 -53 -65 66 0
107 -53 65 -66 0
107 -53 -66 69 0
107 -53 66 -69 0
107 -53 -69 73 0
107 -53 69 -73 0
107 -53 -73 80 0
107 -53 73 -80 0
107 -53 -80 81 0
107 -53 80 -81 0
107 -53 -81 85 0
107 -53 81 -85 0
107 -53 -85 109 0
107 -53 85 -109 0
107 -53 -109 111 0
107 -53 109 -111 0
107 -53 -111 112 0
107 -53 111 -112 0
107 -53 -112 129 0
107 -53 112 -129 0
107 -53 -129 130 0
107 -53 129 -130 0
107 -53 -130 131 0
107 -53 130 -131 0
107 -53 -131 135 0
107 -53 131 -135 0
107 -53 -135 136 0
107 -53 135 -136 0
107 -53 -136 138 0
107 -53 136 -138 0
107 -53 -138 140 0
107 -53 138 -140 0
107 -53 -140 144 0
107 -53 140 -144 0
107 -53 -144 152 0
107 -53 144 -152 0
107 -53 -152 155 0
107 -53 152 -155 0
107 -53 -155 162 0
107 -53 155 -162 0
107 -53 -162 163 0
107 -53 162 -163 0
107 -53 -63 64 0
107 -53 63 -64 0
107 -53 -64 67 0
107 -53 64 -67 0
107 -53 -67 70 0
107 -53 67 -70 0
107 -53 -70 72 0
107 -53 70 -72 0
107 -53 -72 76 0
107 -53 72 -76 0
107 -53 -76 82 0
107 -53 76 -82 0
107 -53 -82 84 0
107 -53 82 -84 0
107 -53 -84 88 0
107 -53 84 -88 0
107 -53 -88 91 0
107 -53 88 -91 0
107 -53 -91 92 0
107 -53 91 -92 0
107 -53 -92 94 0
107 -53 92 -94 0
107 -53 -94 95 0
107 -53 94 -95 0
107 -53 -95 98 0
107 -53 95 -98 0
107 -53 -98 99 0
107 -53 98 -99 0
107 -53 -99 101 0
107 -53 99 -101 0
107 -53 -101 103 0
107 -53 101 -103 0
107 -53 -103 104 0
107 -53 103 -104 0
107 -53 -104 106 0
107 -53 104 -106 0
107 -53 -106 107 0
107 -53 106 -107 0
107 -53 -107 108 0
107 -53 107 -108 0
107 -53 -108 114 0
107 -53 108 -114 0
107 -53 -114 115 0
107 -53 114 -115 0
107 -53 -115 116 0
107 -53 115 -116 0
107 -53 -116 117 0
107 -53 116 -117 0
107 -53 -117 118 0
107 -53 117 -118 0
107 -53 -118 120 0
107 -53 118 -120 0
107 -53 -120 127 0
107 -53 120 -127 0
107 -53 -127 142 0
107 -53 127 -142 0
107 -53 -142 145 0
107 -53 142 -145 0
107 -53 -145 148 0
107 -53 145 -148 0
107 -53 -148 154 0
107 -53 148 -154 0
107 -53 -154 156 0
107 -53 154 -156 0
107 -53 -156 157 0
107 -53 156 -157 0
107 -53 -157 159 0
107 -53 157 -159 0
107 -54 -61 63 0
107 -54 61 -63 0
107 -54 -63 65 0
107 -54 63 -65 0
107 -54 -65 78 0
107 -54 65 -78 0
107 -54 -78 79 0
107 -54 78 -79 0
107 -54 -79 82 0
107 -54 79 -82 0
107 -54 -82 88 0
107 -54 82 -88 0
107 -54 -88 91 0
107 -54 88 -91 0
107 -54 -91 93 0
107 -54 91 -93 0
107 -54 -93 101 0
107 -54 93 -101 0
107 -54 -101 108 0
107 -54 101 -108 0
107 -54 -108 118 0
107 -54 108 -118 0
107 -54 -118 123 0
107 -54 118 -123 0
107 -54 -123 128 0
107 -54 123 -128 0
107 -54 -128 133 0
107 -54 128 -133 0
107 -54 -133 136 0
107 -54 133 -136 0
107 -54 -136 137 0
107 -54 136 -137 0
107 -54 -137 152 0
107 -54 137 -152 0
107 -54 -152 157 0
107 -54 152 -157 0
107 -54 -157 159 0
107 -54 157 -159 0
107 -54 -159 160 0
107 -54 159 -160 0
107 -54 -160 163 0
107 -54 160 -163 0
107 -54 -59 69 0
107 -54 59 -69 0
107 -54 -69 73 0
107 -54 69 -73 0
107 -54 -73 76 0
107 -54 73 -76 0
107 -54 -76 81 0
107 -54 76 -81 0
107 -54 -81 83 0
107 -54 81 -83 0
107 -54 -83 85 0
107 -54 83 -85 0
107 -54 -85 87 0
107 -54 85 -87 0
107 -54 -87 94 0
107 -54 87 -94 0
107 -54 -94 95 0
107 -54 94 -95 0
107 -54 -95 97 0
107 -54 95 -97 0
107 -54 -97 100 0
107 -54 97 -100 0
107 -54 -100 102 0
107 -54 100 -102 0
107 -54 -102 104 0
107 -54 102 -104 0
107 -54 -104 109 0
107 -54 104 -109 0
107 -54 -109 114 0
107 -54 109 -114 0
107 -54 -114 116 0
107 -54 114 -116 0
107 -54 -116 117 0
107 -54 116 -117 0
107 -54 -117 119 0
107 -54 117 -119 0
107 -54 -119 121 0
107 -54 119 -121 0
107 -54 -121 122 0
107 -54 121 -122 0
107 -54 -122 124 0
107 -54 122 -124 0
107 -54 -124 129 0
107 -54 124 -129 0
107 -54 -129 131 0
107 -54 129 -131 0
107 -54 -131 132 0
107 -54 131 -132 0
107 -54 -132 135 0
107 -54 132 -135 0
107 -54 -135 139 0
107 -54 135 -139 0
107 -54 -139 147 0
107 -54 139 -147 0
107 -54 -147 148 0
107 -54 147 -148 0
107 -54 -148 153 0
107 -54 148 -153 0
107 -54 -153 154 0
107 -54 153 -154 0
107 -54 -154 155 0
107 -54 154 -155 0
107 -54 -60 62 0
107 -54 60 -62 0
107 -54 -62 64 0
107 -54 62 -64 0
107 -54 -64 66 0
107 -54 64 -66 0
107 -54 -66 67 0
107 -54 66 -67 0
107 -54 -67 68 0
107 -54 67 -68 0
107 -54 -68 70 0
107 -54 68 -70 0
107 -54 -70 71 0
107 -54 70 -71 0
107 -54 -71 72 0
107 -54 71 -72 0
107 -54 -72 74 0
107 -54 72 -74 0
107 -54 -74 77 0
107 -54 74 -77 0
107 -54 -77 86 0
107 -54 77 -86 0
107 -54 -86 89 0
107 -54 86 -89 0
107 -54 -89 90 0
107 -54 89 -90 0
107 -54 -90 105 0
107 -54 90 -105 0
107 -54 -105 115 0
107 -54 105 -115 0
107 -54 -115 127 0
107 -54 115 -127 0
107 -54 -127 134 0
107 -54 127 -134 0
107 -54 -134 141 0
107 -54 134 -141 0
107 -54 -141 146 0
107 -54 141 -146 0
107 -54 -146 151 0
107 -54 146 -151 0
107 -54 -151 162 0
107 -54 151 -162 0
107 -54 -58 75 0
107 -54 58 -75 0
107 -54 -75 80 0
107 -54 75 -80 0
107 -54 -80 84 0
107 -54 80 -84 0
107 -54 -84 92 0
107 -54 84 -92 0
107 -54 -92 96 0
107 -54 92 -96 0
107 -54 -96 98 0
107 -54 96 -98 0
107 -54 -98 99 0
107 -54 98 -99 0
107 -54 -99 103 0
107 -54 99 -103 0
107 -54 -103 106 0
107 -54 103 -106 0
107 -54 -106 107 0
107 -54 106 -107 0
107 -54 -107 110 0
107 -54 107 -110 0
107 -54 -110 111 0
107 -54 110 -111 0
107 -54 -111 112 0
107 -54 111 -112 0
107 -54 -112 113 0
107 -54 112 -113 0
107 -54 -113 120 0
107 -54 113 -120 0
107 -54 -120 125 0
107 -54 120 -125 0
107 -54 -125 126 0
107 -54 125 -126 0
107 -54 -126 130 0
107 -54 126 -130 0
107 -54 -130 138 0
107 -54 130 -138 0
107 -54 -138 140 0
107 -54 138 -140 0
107 -54 -140 142 0
107 -54 140 -142 0
107 -54 -142 143 0
107 -54 142 -143 0
107 -54 -143 144 0
107 -54 143 -144 0
107 -54 -144 145 0
107 -54 144 -145 0
107 -54 -145 149 0
107 -54 145 -149 0
107 -54 -149 150 0
107 -54 149 -150 0
107 -54 -150 156 0
107 -54 150 -156 0
107 -54 -156 158 0
107 -54 156 -158 0
107 -54 -158 161 0
107 -54 158 -161 0
107 -55 -64 65 0
107 -55 64 -65 0
107 -55 -65 67 0
107 -55 65 -67 0
107 -55 -67 70 0
107 -55 67 -70 0
107 -55 -70 71 0
107 -55 70 -71 0
107 -55 -71 72 0
107 -55 71 -72 0
107 -55 -72 74 0
107 -55 72 -74 0
107 -55 -74 83 0
107 -55 74 -83 0
107 -55 -83 86 0
107 -55 83 -86 0
107 -55 -86 94 0
107 -55 86 -94 0
107 -55 -94 101 0
107 -55 94 -101 0
107 -55 -101 104 0
107 -55 101 -104 0
107 -55 -104 110 0
107 -55 104 -110 0
107 -55 -110 114 0
107 -55 110 -114 0
107 -55 -114 122 0
107 -55 114 -122 0
107 -55 -122 128 0
107 -55 122 -128 0
107 -55 -128 132 0
107 -55 128 -132 0
107 -55 -132 135 0
107 -55 132 -135 0
107 -55 -135 141 0
107 -55 135 -141 0
107 -55 -141 144 0
107 -55 141 -144 0
107 -55 -144 147 0
107 -55 144 -147 0
107 -55 -147 149 0
107 -55 147 -149 0
107 -55 -149 156 0
107 -55 149 -156 0
107 -55 -156 158 0
107 -55 156 -158 0
107 -55 -158 162 0
107 -55 158 -162 0
107 -55 -162 163 0
107 -55 162 -163 0
107 -55 -58 59 0
107 -55 58 -59 0
107 -55 -59 61 0
107 -55 59 -61 0
107 -55 -61 68 0
107 -55 61 -68 0
107 -55 -68 76 0
107 -55 68 -76 0
107 -55 -76 81 0
107 -55 76 -81 0
107 -55 -81 85 0
107 -55 81 -85 0
107 -55 -85 88 0
107 -55 85 -88 0
107 -55 -88 90 0
107 -55 88 -90 0
107 -55 -90 91 0
107 -55 90 -91 0
107 -55 -91 93 0
107 -55 91 -93 0
107 -55 -93 96 0
107 -55 93 -96 0
107 -55 -96 98 0
107 -55 96 -98 0
107 -55 -98 100 0
107 -55 98 -100 0
107 -55 -100 103 0
107 -55 100 -103 0
107 -55 -103 106 0
107 -55 103 -106 0
107 -55 -106 108 0
107 -55 106 -108 0
107 -55 -108 111 0
107 -55 108 -111 0
107 -55 -111 112 0
107 -55 111 -112 0
107 -55 -112 115 0
107 -55 112 -115 0
107 -55 -115 117 0
107 -55 115 -117 0
107 -55 -117 126 0
107 -55 117 -126 0
107 -55 -126 129 0
107 -55 126 -129 0
107 -55 -129 130 0
107 -55 129 -130 0
107 -55 -130 133 0
107 -55 130 -133 0
107 -55 -133 134 0
107 -55 133 -134 0
107 -55 -134 145 0
107 -55 134 -145 0
107 -55 -145 146 0
107 -55 145 -146 0
107 -55 -146 153 0
107 -55 146 -153 0
107 -55 -60 63 0
107 -55 60 -63 0
107 -55 -63 69 0
107 -55 63 -69 0
107 -55 -69 73 0
107 -55 69 -73 0
107 -55 -73 78 0
107 -55 73 -78 0
107 -55 -78 82 0
107 -55 78 -82 0
107 -55 -82 89 0
107 -55 82 -89 0
107 -55 -89 92 0
107 -55 89 -92 0
107 -55 -92 95 0
107 -55 92 -95 0
107 -55 -95 97 0
107 -55 95 -97 0
107 -55 -97 102 0
107 -55 97 -102 0
107 -55 -102 105 0
107 -55 102 -105 0
107 -55 -105 107 0
107 -55 105 -107 0
107 -55 -107 109 0
107 -55 107 -109 0
107 -55 -109 113 0
107 -55 109 -113 0
107 -55 -113 116 0
107 -55 113 -116 0
107 -55 -116 119 0
107 -55 116 -119 0
107 -55 -119 123 0
107 -55 119 -123 0
107 -55 -123 124 0
107 -55 123 -124 0
107 -55 -124 127 0
107 -55 124 -127 0
107 -55 -127 136 0
107 -55 127 -136 0
107 -55 -136 138 0
107 -55 136 -138 0
107 -55 -138 139 0
107 -55 138 -139 0
107 -55 -139 140 0
107 -55 139 -140 0
107 -55 -140 148 0
107 -55 140 -148 0
107 -55 -148 150 0
107 -55 148 -150 0
107 -55 -150 151 0
107 -55 150 -151 0
107 -55 -151 152 0
107 -55 151 -152 0
107 -55 -62 66 0
107 -55 62 -66 0
107 -55 -66 75 0
107 -55 66 -75 0
107 -55 -75 77 0
107 -55 75 -77 0
107 -55 -77 79 0
107 -55 77 -79 0
107 -55 -79 80 0
107 -55 79 -80 0
107 -55 -80 84 0
107 -55 80 -84 0
107 -55 -84 87 0
107 -55 84 -87 0
107 -55 -87 99 0
107 -55 87 -99 0
107 -55 -99 118 0
107 -55 99 -118 0
107 -55 -118 120 0
107 -55 118 -120 0
107 -55 -120 121 0
107 -55 120 -121 0
107 -55 -121 125 0
107 -55 121 -125 0
107 -55 -125 131 0
107 -55 125 -131 0
107 -55 -131 137 0
107 -55 131 -137 0
107 -55 -137 142 0
107 -55 137 -142 0
107 -55 -142 143 0
107 -55 142 -143 0
107 -55 -143 154 0
107 -55 143 -154 0
107 -55 -154 155 0
107 -55 154 -155 0
107 -55 -155 157 0
107 -55 155 -157 0
107 -55 -157 159 0
107 -55 157 -159 0
107 -55 -159 160 0
107 -55 159 -160 0
107 -55 -160 161 0
107 -55 160 -161 0
107 -56 -59 62 0
107 -56 59 -62 0
107 -56 -62 64 0
107 -56 62 -64 0
107 -56 -64 69 0
107 -56 64 -69 0
107 -56 -69 78 0
107 -56 69 -78 0
107 -56 -78 92 0
107 -56 78 -92 0
107 -56 -92 95 0
107 -56 92 -95 0
107 -56 -95 101 0
107 -56 95 -101 0
107 -56 -101 103 0
107 -56 101 -103 0
107 -56 -103 105 0
107 -56 103 -105 0
107 -56 -105 108 0
107 -56 105 -108 0
107 -56 -108 109 0
107 -56 108 -109 0
107 -56 -109 110 0
107 -56 109 -110 0
107 -56 -110 114 0
107 -56 110 -114 0
107 -56 -114 115 0
107 -56 114 -115 0
107 -56 -115 117 0
107 -56 115 -117 0
107 -56 -117 119 0
107 -56 117 -119 0
107 -56 -119 130 0
107 -56 119 -130 0
107 -56 -130 138 0
107 -56 130 -138 0
107 -56 -138 142 0
107 -56 138 -142 0
107 -56 -142 146 0
107 -56 142 -146 0
107 -56 -146 153 0
107 -56 146 -153 0
107 -56 -153 159 0
107 -56 153 -159 0
107 -56 -159 162 0
107 -56 159 -162 0
107 -56 -60 65 0
107 -56 60 -65 0
107 -56 -65 67 0
107 -56 65 -67 0
107 -56 -67 68 0
107 -56 67 -68 0
107 -56 -68 71 0
107 -56 68 -71 0
107 -56 -71 72 0
107 -56 71 -72 0
107 -56 -72 73 0
107 -56 72 -73 0
107 -56 -73 74 0
107 -56 73 -74 0
107 -56 -74 76 0
107 -56 74 -76 0
107 -56 -76 80 0
107 -56 76 -80 0
107 -56 -80 82 0
107 -56 80 -82 0
107 -56 -82 83 0
107 -56 82 -83 0
107 -56 -83 85 0
107 -56 83 -85 0
107 -56 -85 100 0
107 -56 85 -100 0
107 -56 -100 106 0
107 -56 100 -106 0
107 -56 -106 113 0
107 -56 106 -113 0
107 -56 -113 121 0
107 -56 113 -121 0
107 -56 -121 123 0
107 -56 121 -123 0
107 -56 -123 126 0
107 -56 123 -126 0
107 -56 -126 127 0
107 -56 126 -127 0
107 -56 -127 128 0
107 -56 127 -128 0
107 -56 -128 129 0
107 -56 128 -129 0
107 -56 -129 133 0
107 -56 129 -133 0
107 -56 -133 135 0
107 -56 133 -135 0
107 -56 -135 145 0
107 -56 135 -145 0
107 -56 -145 151 0
107 -56 145 -151 0
107 -56 -151 158 0
107 -56 151 -158 0
107 -56 -158 161 0
107 -56 158 -161 0
107 -56 -161 163 0
107 -56 161 -163 0
107 -56 -58 63 0
107 -56 58 -63 0
107 -56 -63 70 0
107 -56 63 -70 0
107 -56 -70 75 0
107 -56 70 -75 0
107 -56 -75 81 0
107 -56 75 -81 0
107 -56 -81 86 0
107 -56 81 -86 0
107 -56 -86 87 0
107 -56 86 -87 0
107 -56 -87 88 0
107 -56 87 -88 0
107 -56 -88 89 0
107 -56 88 -89 0
107 -56 -89 91 0
107 -56 89 -91 0
107 -56 -91 93 0
107 -56 91 -93 0
107 -56 -93 102 0
107 -56 93 -102 0
107 -56 -102 104 0
107 -56 102 -104 0
107 -56 -104 125 0
107 -56 104 -125 0
107 -56 -125 131 0
107 -56 125 -131 0
107 -56 -131 132 0
107 -56 131 -132 0
107 -56 -132 136 0
107 -56 132 -136 0
107 -56 -136 137 0
107 -56 136 -137 0
107 -56 -137 139 0
107 -56 137 -139 0
107 -56 -139 143 0
107 -56 139 -143 0
107 -56 -143 147 0
107 -56 143 -147 0
107 -56 -147 149 0
107 -56 147 -149 0
107 -56 -149 150 0
107 -56 149 -150 0
107 -56 -150 157 0
107 -56 150 -157 0
107 -56 -61 66 0
107 -56 61 -66 0
107 -56 -66 77 0
107 -56 66 -77 0
107 -56 -77 79 0
107 -56 77 -79 0
107 -56 -79 84 0
107 -56 79 -84 0
107 -56 -84 90 0
107 -56 84 -90 0
107 -56 -90 94 0
107 -56 90 -94 0
107 -56 -94 96 0
107 -56 94 -96 0
107 -56 -96 97 0
107 -56 96 -97 0
107 -56 -97 98 0
107 -56 97 -98 0
107 -56 -98 99 0
107 -56 98 -99 0
107 -56 -99 107 0
107 -56 99 -107 0
107 -56 -107 111 0
107 -56 107 -111 0
107 -56 -111 112 0
107 -56 111 -112 0
107 -56 -112 116 0
107 -56 112 -116 0
107 -56 -116 118 0
107 -56 116 -118 0
107 -56 -118 120 0
107 -56 118 -120 0
107 -56 -120 122 0
107 -56 120 -122 0
107 -56 -122 124 0
107 -56 122 -124 0
107 -56 -124 134 0
107 -56 124 -134 0
107 -56 -134 140 0
107 -56 134 -140 0
107 -56 -140 141 0
107 -56 140 -141 0
107 -56 -141 144 0
107 -56 141 -144 0
107 -56 -144 148 0
107 -56 144 -148 0
107 -56 -148 152 0
107 -56 148 -152 0
107 -56 -152 154 0
107 -56 152 -154 0
107 -56 -154 155 0
107 -56 154 -155 0
107 -56 -155 156 0
107 -56 155 -156 0
107 -56 -156 160 0
107 -56 156 -160 0
107 -57 -59 65 0
107 -57 59 -65 0
107 -57 -65 67 0
107 -57 65 -67 0
107 -57 -67 70 0
107 -57 67 -70 0
107 -57 -70 71 0
107 -57 70 -71 0
107 -57 -71 72 0
107 -57 71 -72 0
107 -57 -72 74 0
107 -57 72 -74 0
107 -57 -74 79 0
107 -57 74 -79 0
107 -57 -79 80 0
107 -57 79 -80 0
107 -57 -80 94 0
107 -57 80 -94 0
107 -57 -94 97 0
107 -57 94 -97 0
107 -57 -97 111 0
107 -57 97 -111 0
107 -57 -111 117 0
107 -57 111 -117 0
107 -57 -117 118 0
107 -57 117 -118 0
107 -57 -118 125 0
107 -57 118 -125 0
107 -57 -125 131 0
107 -57 125 -131 0
107 -57 -131 133 0
107 -57 131 -133 0
107 -57 -133 136 0
107 -57 133 -136 0
107 -57 -136 138 0
107 -57 136 -138 0
107 -57 -138 140 0
107 -57 138 -140 0
107 -57 -140 146 0
107 -57 140 -146 0
107 -57 -146 147 0
107 -57 146 -147 0
107 -57 -147 148 0
107 -57 147 -148 0
107 -57 -148 149 0
107 -57 148 -149 0
107 -57 -149 150 0
107 -57 149 -150 0
107 -57 -150 151 0
107 -57 150 -151 0
107 -57 -151 157 0
107 -57 151 -157 0
107 -57 -61 69 0
107 -57 61 -69 0
107 -57 -69 73 0
107 -57 69 -73 0
107 -57 -73 75 0
107 -57 73 -75 0
107 -57 -75 81 0
107 -57 75 -81 0
107 -57 -81 83 0
107 -57 81 -83 0
107 -57 -83 93 0
107 -57 83 -93 0
107 -57 -93 99 0
107 -57 93 -99 0
107 -57 -99 112 0
107 -57 99 -112 0
107 -57 -112 119 0
107 -57 112 -119 0
107 -57 -119 127 0
107 -57 119 -127 0
107 -57 -127 130 0
107 -57 127 -130 0
107 -57 -130 132 0
107 -57 130 -132 0
107 -57 -132 142 0
107 -57 132 -142 0
107 -57 -142 152 0
107 -57 142 -152 0
107 -57 -152 161 0
107 -57 152 -161 0
107 -57 -161 162 0
107 -57 161 -162 0
107 -57 -60 62 0
107 -57 60 -62 0
107 -57 -62 68 0
107 -57 62 -68 0
107 -57 -68 76 0
107 -57 68 -76 0
107 -57 -76 78 0
107 -57 76 -78 0
107 -57 -78 82 0
107 -57 78 -82 0
107 -57 -82 85 0
107 -57 82 -85 0
107 -57 -85 86 0
107 -57 85 -86 0
107 -57 -86 88 0
107 -57 86 -88 0
107 -57 -88 90 0
107 -57 88 -90 0
107 -57 -90 100 0
107 -57 90 -100 0
107 -57 -100 107 0
107 -57 100 -107 0
107 -57 -107 109 0
107 -57 107 -109 0
107 -57 -109 113 0
107 -57 109 -113 0
107 -57 -113 115 0
107 -57 113 -115 0
107 -57 -115 120 0
107 -57 115 -120 0
107 -57 -120 121 0
107 -57 120 -121 0
107 -57 -121 123 0
107 -57 121 -123 0
107 -57 -123 126 0
107 -57 123 -126 0
107 -57 -126 135 0
107 -57 126 -135 0
107 -57 -135 137 0
107 -57 135 -137 0
107 -57 -137 141 0
107 -57 137 -141 0
107 -57 -141 144 0
107 -57 141 -144 0
107 -57 -144 145 0
107 -57 144 -145 0
107 -57 -145 153 0
107 -57 145 -153 0
107 -57 -153 154 0
107 -57 153 -154 0
107 -57 -154 158 0
107 -57 154 -158 0
107 -57 -158 160 0
107 -57 158 -160 0
107 -57 -58 63 0
107 -57 58 -63 0
107 -57 -63 64 0
107 -57 63 -64 0
107 -57 -64 66 0
107 -57 64 -66 0
107 -57 -66 77 0
107 -57 66 -77 0
107 -57 -77 84 0
107 -57 77 -84 0
107 -57 -84 87 0
107 -57 84 -87 0
107 -57 -87 89 0
107 -57 87 -89 0
107 -57 -89 91 0
107 -57 89 -91 0
107 -57 -91 92 0
107 -57 91 -92 0
107 -57 -92 95 0
107 -57 92 -95 0
107 -57 -95 96 0
107 -57 95 -96 0
107 -57 -96 98 0
107 -57 96 -98 0
107 -57 -98 101 0
107 -57 98 -101 0
107 -57 -101 102 0
107 -57 101 -102 0
107 -57 -102 103 0
107 -57 102 -103 0
107 -57 -103 104 0
107 -57 103 -104 0
107 -57 -104 105 0
107 -57 104 -105 0
107 -57 -105 106 0
107 -57 105 -106 0
107 -57 -106 108 0
107 -57 106 -108 0
107 -57 -108 110 0
107 -57 108 -110 0
107 -57 -110 114 0
107 -57 110 -114 0
107 -57 -114 116 0
107 -57 114 -116 0
107 -57 -116 122 0
107 -57 116 -122 0
107 -57 -122 124 0
107 -57 122 -124 0
107 -57 -124 128 0
107 -57 124 -128 0
107 -57 -128 129 0
107 -57 128 -129 0
107 -57 -129 134 0
107 -57 129 -134 0
107 -57 -134 139 0
107 -57 134 -139 0
107 -57 -139 143 0
107 -57 139 -143 0
107 -57 -143 155 0
107 -57 143 -155 0
107 -57 -155 156 0
107 -57 155 -156 0
107 -57 -156 159 0
107 -57 156 -159 0
107 -57 -159 163 0
107 -57 159 -163 0
107 -164 58 0
107 -166 59 0
107 -168 60 0
107 -170 61 0
107 -172 62 0
107 -174 63 0
107 -176 64 0
107 -178 65 0
107 -180 66 0
107 -182 67 0
107 -184 68 0
107 -186 69 0
107 -188 70 0
107 -190 71 0
107 -192 72 0
107 -194 73 0
107 -196 74 0
107 -198 75 0
107 -200 76 0
107 -202 77 0
107 -204 78 0
107 -206 79 0
107 -208 80 0
107 -210 81 0
107 -212 82 0
107 -214 83 0
107 -216 84 0
107 -218 85 0
107 -220 86 0
107 -222 87 0
107 -224 88 0
107 -226 89 0
107 -228 90 0
107 -230 91 0
107 -232 92 0
107 -234 93 0
107 -236 94 0
107 -238 95 0
107 -240 96 0
107 -242 97 0
107 -244 98 0
107 -246 99 0
107 -248 100 0
107 -250 101 0
107 -252 102 0
107 -254 103 0
107 -256 104 0
107 -258 105 0
107 -260 106 0
107 -262 107 0
107 -264 108 0
107 -266 109 0
107 -268 110 0
107 -270 111 0
107 -272 112 0
107 -274 113 0
107 -276 114 0
107 -278 115 0
107 -280 116 0
107 -282 117 0
107 -284 118 0
107 -286 119 0
107 -288 120 0
107 -290 121 0
107 -292 122 0
107 -294 123 0
107 -296 124 0
107 -298 125 0
107 -300 126 0
107 -302 127 0
107 -304 128 0
107 -306 129 0
107 -308 130 0
107 -310 131 0
107 -312 132 0
107 -314 133 0
107 -316 134 0
107 -318 135 0
107 -320 136 0
107 -322 137 0
107 -324 138 0
107 -326 139 0
107 -328 140 0
107 -330 141 0
107 -332 142 0
107 -334 143 0
107 -336 144 0
107 -338 145 0
107 -340 146 0
107 -342 147 0
107 -344 148 0
107 -346 149 0
107 -348 150 0
107 -350 151 0
107 -352 152 0
107 -354 153 0
107 -356 154 0
107 -358 155 0
107 -360 156 0
107 -362 157 0
107 -364 158 0
107 -366 159 0
107 -368 160 0
107 -370 161 0
107 -372 162 0
107 -374 163 0
107 -165 -58 0
107 -167 -59 0
107 -169 -60 0
107 -171 -61 0
107 -173 -62 0
107 -175 -63 0
107 -177 -64 0
107 -179 -65 0
107 -181 -66 0
107 -183 -67 0
107 -185 -68 0
107 -187 -69 0
107 -189 -70 0
107 -191 -71 0
107 -193 -72 0
107 -195 -73 0
107 -197 -74 0
107 -199 -75 0
107 -201 -76 0
107 -203 -77 0
107 -205 -78 0
107 -207 -79 0
107 -209 -80 0
107 -211 -81 0
107 -213 -82 0
107 -215 -83 0
107 -217 -84 0
107 -219 -85 0
107 -221 -86 0
107 -223 -87 0
107 -225 -88 0
107 -227 -89 0
107 -229 -90 0
107 -231 -91 0
107 -233 -92 0
107 -235 -93 0
107 -237 -94 0
107 -239 -95 0
107 -241 -96 0
107 -243 -97 0
107 -245 -98 0
107 -247 -99 0
107 -249 -100 0
107 -251 -101 0
107 -253 -102 0
107 -255 -103 0
107 -257 -104 0
107 -259 -105 0
107 -261 -106 0
107 -263 -107 0
107 -265 -108 0
107 -267 -109 0
107 -269 -110 0
107 -271 -111 0
107 -273 -112 0
107 -275 -113 0
107 -277 -114 0
107 -279 -115 0
107 -281 -116 0
107 -283 -117 0
107 -285 -118 0
107 -287 -119 0
107 -289 -120 0
107 -291 -121 0
107 -293 -122 0
107 -295 -123 0
107 -297 -124 0
107 -299 -125 0
107 -301 -126 0
107 -303 -127 0
107 -305 -128 0
107 -307 -129 0
107 -309 -130 0
107 -311 -131 0
107 -313 -132 0
107 -315 -133 0
107 -317 -134 0
107 -319 -135 0
107 -321 -136 0
107 -323 -137 0
107 -325 -138 0
107 -327 -139 0
107 -329 -140 0
107 -331 -141 0
107 -333 -142 0
107 -335 -143 0
107 -337 -144 0
107 -339 -145 0
107 -341 -146 0
107 -343 -147 0
107 -345 -148 0
107 -347 -149 0
107 -349 -150 0
107 -351 -151 0
107 -353 -152 0
107 -355 -153 0
107 -357 -154 0
107 -359 -155 0
107 -361 -156 0
107 -363 -157 0
107 -365 -158 0
107 -367 -159 0
107 -369 -160 0
107 -371 -161 0
107 -373 -162 0
107 -375 -163 0
107 164 -58 0
107 165 58 0
107 166 -59 0
107 167 59 0
107 168 -60 0
107 169 60 0
107 170 -61 0
107 171 61 0
107 172 -62 0
107 173 62 0
107 174 -63 0
107 175 63 0
107 176 -64 0
107 177 64 0
107 178 -65 0
107 179 65 0
107 180 -66 0
107 181 66 0
107 182 -67 0
107 183 67 0
107 184 -68 0
107 185 68 0
107 186 -69 0
107 187 69 0
107 188 -70 0
107 189 70 0
107 190 -71 0
107 191 71 0
107 192 -72 0
107 193 72 0
107 194 -73 0
107 195 73 0
107 196 -74 0
107 197 74 0
107 198 -75 0
107 199 75 0
107 200 -76 0
107 201 76 0
107 202 -77 0
107 203 77 0
107 204 -78 0
107 205 78 0
107 206 -79 0
107 207 79 0
107 208 -80 0
107 209 80 0
107 210 -81 0
107 211 81 0
107 212 -82 0
107 213 82 0
107 214 -83 0
107 215 83 0
107 216 -84 0
107 217 84 0
107 218 -85 0
107 219 85 0
107 220 -86 0
107 221 86 0
107 222 -87 0
107 223 87 0
107 224 -88 0
107 225 88 0
107 226 -89 0
107 227 89 0
107 228 -90 0
107 229 90 0
107 230 -91 0
107 231 91 0
107 232 -92 0
107 233 92 0
107 234 -93 0
107 235 93 0
107 236 -94 0
107 237 94 0
107 238 -95 0
107 239 95 0
107 240 -96 0
107 241 96 0
107 242 -97 0
107 243 97 0
107 244 -98 0
107 245 98 0
107 246 -99 0
107 247 99 0
107 248 -100 0
107 249 100 0
107 250 -101 0
107 251 101 0
107 252 -102 0
107 253 102 0
107 254 -103 0
107 255 103 0
107 256 -104 0
107 257 104 0
107 258 -105 0
107 259 105 0
107 260 -106 0
107 261 106 0
107 262 -107 0
107 263 107 0
107 264 -108 0
107 265 108 0
107 266 -109 0
107 267 109 0
107 268 -110 0
107 269 110 0
107 270 -111 0
107 271 111 0
107 272 -112 0
107 273 112 0
107 274 -113 0
107 275 113 0
107 276 -114 0
107 277 114 0
107 278 -115 0
107 279 115 0
107 280 -116 0
107 281 116 0
107 282 -117 0
107 283 117 0
107 284 -118 0
107 285 118 0
107 286 -119 0
107 287 119 0
107 288 -120 0
107 289 120 0
107 290 -121 0
107 291 121 0
107 292 -122 0
107 293 122 0
107 294 -123 0
107 295 123 0
107 296 -124 0
107 297 124 0
107 298 -125 0
107 299 125 0
107 300 -126 0
107 301 126 0
107 302 -127 0
107 303 127 0
107 304 -128 0
107 305 128 0
107 306 -129 0
107 307 129 0
107 308 -130 0
107 309 130 0
107 310 -131 0
107 311 131 0
107 312 -132 0
107 313 132 0
107 314 -133 0
107 315 133 0
107 316 -134 0
107 317 134 0
107 318 -135 0
107 319 135 0
107 320 -136 0
107 321 136 0
107 322 -137 0
107 323 137 0
107 324 -138 0
107 325 138 0
107 326 -139 0
107 327 139 0
107 328 -140 0
107 329 140 0
107 330 -141 0
107 331 141 0
107 332 -142 0
107 333 142 0
107 334 -143 0
107 335 143 0
107 336 -144 0
107 337 144 0
107 338 -145 0
107 339 145 0
107 340 -146 0
107 341 146 0
107 342 -147 0
107 343 147 0
107 344 -148 0
107 345 148 0
107 346 -149 0
107 347 149 0
107 348 -150 0
107 349 150 0
107 350 -151 0
107 351 151 0
107 352 -152 0
107 353 152 0
107 354 -153 0
107 355 153 0
107 356 -154 0
107 357 154 0
107 358 -155 0
107 359 155 0
107 360 -156 0
107 361 156 0
107 362 -157 0
107 363 157 0
107 364 -158 0
107 365 158 0
107 366 -159 0
107 367 159 0
107 368 -160 0
107 369 160 0
107 370 -161 0
107 371 161 0
107 372 -162 0
107 373 162 0
107 374 -163 0
107 375 163 0
107 -376 -377 0
107 -378 -379 0
107 -1 61 0
107 -2 58 0
107 -3 60 0
107 -4 62 0
107 -5 58 0
107 -6 60 0
107 -7 62 0
107 -8 58 0
107 -9 58 0
107 -10 60 0
107 -11 58 0
107 -12 66 0
107 -13 59 0
107 -14 60 0
107 -15 103 0
107 -16 75 0
107 -17 112 0
107 -18 61 0
107 -19 60 0
107 -20 59 0
107 -21 62 0
107 -22 60 0
107 -23 62 0
107 -24 62 0
107 -25 65 0
107 -26 59 0
107 -27 60 0
107 -28 65 0
107 -29 62 0
107 -30 58 0
107 -31 58 0
107 -32 62 0
107 -33 65 0
107 -34 58 0
107 -35 62 0
107 -36 61 0
107 -37 77 0
107 -38 58 0
107 -39 63 0
107 -40 58 0
107 -41 58 0
107 -42 78 0
107 -43 61 0
107 -44 61 0
107 -45 59 0
107 -46 59 0
107 -47 60 0
107 -48 67 0
107 -49 61 0
107 -50 59 0
107 -51 66 0
107 -52 61 0
107 -53 61 0
107 -54 61 0
107 -55 64 0
107 -56 59 0
107 -57 59 0
107 -380 -164 376 0
107 -380 -165 378 0
107 -381 -166 376 0
107 -381 -167 378 0
107 -382 -168 376 0
107 -382 -169 378 0
107 -383 -170 376 0
107 -383 -171 378 0
107 -384 -172 376 0
107 -384 -173 378 0
107 -385 -174 376 0
107 -385 -175 378 0
107 -386 -176 376 0
107 -386 -177 378 0
107 -387 -178 376 0
107 -387 -179 378 0
107 -388 -180 376 0
107 -388 -181 378 0
107 -389 -182 376 0
107 -389 -183 378 0
107 -390 -184 376 0
107 -390 -185 378 0
107 -391 -186 376 0
107 -391 -187 378 0
107 -392 -188 376 0
107 -392 -189 378 0
107 -393 -190 376 0
107 -393 -191 378 0
107 -394 -192 376 0
107 -394 -193 378 0
107 -395 -194 376 0
107 -395 -195 378 0
107 -396 -196 376 0
107 -396 -197 378 0
107 -397 -198 376 0
107 -397 -199 378 0
107 -398 -200 376 0
107 -398 -201 378 0
107 -399 -202 376 0
107 -399 -203 378 0
107 -400 -204 376 0
107 -400 -205 378 0
107 -401 -206 376 0
107 -401 -207 378 0
107 -402 -208 376 0
107 -402 -209 378 0
107 -403 -210 376 0
107 -403 -211 378 0
107 -404 -212 376 0
107 -404 -213 378 0
107 -405 -214 376 0
107 -405 -215 378 0
107 -406 -216 376 0
107 -406 -217 378 0
107 -407 -218 376 0
107 -407 -219 378 0
107 -408 -220 376 0
107 -408 -221 378 0
107 -409 -222 376 0
107 -409 -223 378 0
107 -410 -224 376 0
107 -410 -225 378 0
107 -411 -226 376 0
107 -411 -227 378 0
107 -412 -228 376 0
107 -412 -229 378 0
107 -413 -230 376 0
107 -413 -231 378 0
107 -414 -232 376 0
107 -414 -233 378 0
107 -415 -234 376 0
107 -415 -235 378 0
107 -416 -236 376 0
107 -416 -237 378 0
107 -417 -238 376 0
107 -417 -239 378 0
107 -418 -240 376 0
107 -418 -241 378 0
107 -419 -242 376 0
107 -419 -243 378 0
107 -420 -244 376 0
107 -420 -245 378 0
107 -421 -246 376 0
107 -421 -247 378 0
107 -422 -248 376 0
107 -422 -249 378 0
107 -423 -250 376 0
107 -423 -251 378 0
107 -424 -252 376 0
107 -424 -253 378 0
107 -425 -254 376 0
107 -425 -255 378 0
107 -426 -256 376 0
107 -426 -257 378 0
107 -427 -258 376 0
107 -427 -259 378 0
107 -428 -260 376 0
107 -428 -261 378 0
107 -429 -262 376 0
107 -429 -263 378 0
107 -430 -264 376 0
107 -430 -265 378 0
107 -431 -266 376 0
107 -431 -267 378 0
107 -432 -268 376 0
107 -432 -269 378 0
107 -433 -270 377 0
107 -433 -271 379 0
107 -434 -272 377 0
107 -434 -273 379 0
107 -435 -274 377 0
107 -435 -275 379 0
107 -436 -276 377 0
107 -436 -277 379 0
107 -437 -278 377 0
107 -437 -279 379 0
107 -438 -280 377 0
107 -438 -281 379 0
107 -439 -282 377 0
107 -439 -283 379 0
107 -440 -284 377 0
107 -440 -285 379 0
107 -441 -286 377 0
107 -441 -287 379 0
107 -442 -288 377 0
107 -442 -289 379 0
107 -443 -290 377 0
107 -443 -291 379 0
107 -444 -292 377 0
107 -444 -293 379 0
107 -445 -294 377 0
107 -445 -295 379 0
107 -446 -296 377 0
107 -446 -297 379 0
107 -447 -298 377 0
107 -447 -299 379 0
107 -448 -300 377 0
107 -448 -301 379 0
107 -449 -302 377 0
107 -449 -303 379 0
107 -450 -304 377 0
107 -450 -305 379 0
107 -451 -306 377 0
107 -451 -307 379 0
107 -452 -308 377 0
107 -452 -309 379 0
107 -453 -310 377 0
107 -453 -311 379 0
107 -454 -312 377 0
107 -454 -313 379 0
107 -455 -314 377 0
107 -455 -315 379 0
107 -456 -316 377 0
107 -456 -317 379 0
107 -457 -318 377 0
107 -457 -319 379 0
107 -458 -320 377 0
107 -458 -321 379 0
107 -459 -322 377 0
107 -459 -323 379 0
107 -460 -324 377 0
107 -460 -325 379 0
107 -461 -326 377 0
107 -461 -327 379 0
107 -462 -328 377 0
107 -462 -329 379 0
107 -463 -330 377 0
107 -463 -331 379 0
107 -464 -332 377 0
107 -464 -333 379 0
107 -465 -334 377 0
107 -465 -335 379 0
107 -466 -336 377 0
107 -466 -337 379 0
107 -467 -338 377 0
107 -467 -339 379 0
107 -468 -340 377 0
107 -468 -341 379 0
107 -469 -342 377 0
107 -469 -343 379 0
107 -470 -344 377 0
107 -470 -345 379 0
107 -471 -346 377 0
107 -471 -347 379 0
107 -472 -348 377 0
107 -472 -349 379 0
107 -473 -350 377 0
107 -473 -351 379 0
107 -474 -352 377 0
107 -474 -353 379 0
107 -475 -354 377 0
107 -475 -355 379 0
107 -476 -356 377 0
107 -476 -357 379 0
107 -477 -358 377 0
107 -477 -359 379 0
107 -478 -360 377 0
107 -478 -361 379 0
107 -479 -362 377 0
107 -479 -363 379 0
107 -480 -364 377 0
107 -480 -365 379 0
107 -481 -366 377 0
107 -481 -367 379 0
107 -482 -368 377 0
107 -482 -369 379 0
107 -483 -370 377 0
107 -483 -371 379 0
107 -484 -372 377 0
107 -484 -373 379 0
107 -485 -374 377 0
107 -485 -375 379 0
